LAMMPS (30 Jun 2020)
  using 1 OpenMP thread(s) per MPI task
variable number	equal 1
variable ofreq	equal 1000
variable efreq	equal 1000
variable T      equal 0.1

units lj

dimension 3

newton off

boundary  p p p

atom_style hybrid bond ellipsoid
WARNING: Atom_style hybrid defines both pertype and peratom masses - both must be set, only peratom masses will be used (src/atom_vec_hybrid.cpp:156)
atom_modify sort 0 1.0

# Pair interactions require lists of neighbours to be calculated
neighbor 1.0 bin
neigh_modify every 1 delay 0 check yes
special_bonds lj 0 1 1 coul 1 1 1

read_data data.duplex1
  orthogonal box = (-20 -20 -20) to (20 20 20)
  2 by 2 by 2 MPI processor grid
  reading atoms ...
  10 atoms
  reading velocities ...
  10 velocities
  10 ellipsoids
  scanning bonds ...
  2 = max bonds/atom
  reading bonds ...
  8 bonds
  2 = max # of 1-2 neighbors
  2 = max # of special neighbors
  special bonds CPU = 0.001 seconds
  read_data CPU = 0.086 seconds

set atom * mass 3.1575
  10 settings made for mass

group all type 1 4
10 atoms in group all

# oxDNA2 bond interactions - FENE backbone
bond_style oxdna2/fene
bond_coeff * 2.0 0.25 0.7564

# oxDNA2 pair interactions
pair_style hybrid/overlay oxdna2/excv oxdna2/stk oxdna2/hbond oxdna2/xstk oxdna2/coaxstk oxdna2/dh
pair_coeff * * oxdna2/excv    2.0 0.7 0.675 2.0 0.515 0.5 2.0 0.33 0.32
pair_coeff * * oxdna2/stk     seqav ${T} 1.3523 2.6717 6.0 0.4 0.9 0.32 0.75 1.3 0 0.8 0.9 0 0.95 0.9 0 0.95 2.0 0.65 2.0 0.65
pair_coeff * * oxdna2/stk     seqav 0.1 1.3523 2.6717 6.0 0.4 0.9 0.32 0.75 1.3 0 0.8 0.9 0 0.95 0.9 0 0.95 2.0 0.65 2.0 0.65
pair_coeff * * oxdna2/hbond   seqav 0.0 8.0 0.4 0.75 0.34 0.7 1.5 0 0.7 1.5 0 0.7 1.5 0 0.7 0.46 3.141592653589793 0.7 4.0 1.5707963267948966 0.45 4.0 1.5707963267948966 0.45
pair_coeff 1 4 oxdna2/hbond   seqav 1.0678 8.0 0.4 0.75 0.34 0.7 1.5 0 0.7 1.5 0 0.7 1.5 0 0.7 0.46 3.141592653589793 0.7 4.0 1.5707963267948966 0.45 4.0 1.5707963267948966 0.45
pair_coeff 2 3 oxdna2/hbond   seqav 1.0678 8.0 0.4 0.75 0.34 0.7 1.5 0 0.7 1.5 0 0.7 1.5 0 0.7 0.46 3.141592653589793 0.7 4.0 1.5707963267948966 0.45 4.0 1.5707963267948966 0.45
pair_coeff * * oxdna2/xstk    47.5 0.575 0.675 0.495 0.655 2.25 0.791592653589793 0.58 1.7 1.0 0.68 1.7 1.0 0.68 1.5 0 0.65 1.7 0.875 0.68 1.7 0.875 0.68
pair_coeff * * oxdna2/coaxstk 58.5 0.4 0.6 0.22 0.58 2.0 2.891592653589793 0.65 1.3 0 0.8 0.9 0 0.95 0.9 0 0.95 40.0 3.116592653589793
pair_coeff * * oxdna2/dh      ${T} 1.0 0.815
pair_coeff * * oxdna2/dh      0.1 1.0 0.815

# NVE ensemble
fix 1 all nve/dot
#fix 1 all nve/dotc/langevin ${T} ${T} 0.03 457145 angmom 10
#fix 1 all nve/asphere
#fix 2 all langevin ${T} ${T} 0.03 457145 angmom 10

timestep 1e-5

#comm_style tiled
#fix 3 all balance 10000 1.1 rcb

#compute mol all chunk/atom molecule
#compute mychunk all vcm/chunk mol
#fix 4 all ave/time 10000 1 10000 c_mychunk[1] c_mychunk[2] c_mychunk[3] file vcm.txt mode vector

#dump pos all xyz ${ofreq} traj.${number}.xyz

#compute quat all property/atom quatw quati quatj quatk
#dump quat all custom ${ofreq} quat.${number}.txt id c_quat[1] c_quat[2] c_quat[3] c_quat[4]
#dump_modify quat sort id
#dump_modify quat format line "%d  %13.6le  %13.6le  %13.6le  %13.6le"

compute erot all erotate/asphere
compute ekin all ke
compute epot all pe
variable erot equal c_erot
variable ekin equal c_ekin
variable epot equal c_epot
variable etot equal c_erot+c_ekin+c_epot

#dump out all custom ${ofreq} out.${number}.txt id x y z vx vy vz fx fy fz tqx tqy tqz
#dump_modify out sort id
#dump_modify out format line "%d   %13.6le %13.6le %13.6le  %13.6le %13.6le %13.6le  %13.6le %13.6le %13.6le  %13.6le %13.6le %13.6le"
thermo_style custom step temp press v_ekin v_erot v_epot v_etot
thermo 100
run 1000
Neighbor list info ...
  update every 1 steps, delay 0 steps, check yes
  max neighbors/atom: 2000, page size: 100000
  master list distance cutoff = 2.6274048
  ghost atom cutoff = 2.6274048
  binsize = 1.3137024, bins = 31 31 31
  6 neighbor lists, perpetual/occasional/extra = 6 0 0
  (1) pair oxdna2/excv, perpetual
      attributes: half, newton off
      pair build: half/bin/newtoff
      stencil: half/bin/3d/newtoff
      bin: standard
  (2) pair oxdna2/stk, perpetual, copy from (1)
      attributes: half, newton off
      pair build: copy
      stencil: none
      bin: none
  (3) pair oxdna2/hbond, perpetual, copy from (1)
      attributes: half, newton off
      pair build: copy
      stencil: none
      bin: none
  (4) pair oxdna2/xstk, perpetual, copy from (1)
      attributes: half, newton off
      pair build: copy
      stencil: none
      bin: none
  (5) pair oxdna2/coaxstk, perpetual, copy from (1)
      attributes: half, newton off
      pair build: copy
      stencil: none
      bin: none
  (6) pair oxdna2/dh, perpetual, copy from (1)
      attributes: half, newton off
      pair build: copy
      stencil: none
      bin: none
Per MPI rank memory allocation (min/avg/max) = 7.753 | 7.81 | 7.867 Mbytes
Step Temp Press v_ekin v_erot v_epot v_etot 
       0            0 4.663076e-06            0            0   -14.617514   -14.617514 
     100 8.4001565e-07 4.6637473e-06 1.1340211e-05 4.3183554e-05   -14.617569   -14.617514 
     200 3.3597787e-06 4.6657609e-06 4.5357012e-05 0.0001727242   -14.617732   -14.617514 
     300 7.5584374e-06 4.6691162e-06 0.00010203891 0.0003885919   -14.618005   -14.617514 
     400 1.3434573e-05 4.6738117e-06 0.00018136673 0.00069073659   -14.618386   -14.617514 
     500 2.0986198e-05 4.6798459e-06 0.00028331368 0.0010790882   -14.618876   -14.617514 
     600 3.0210762e-05 4.6872163e-06 0.00040784528 0.0015535568   -14.619475   -14.617514 
     700 4.1105145e-05 4.6959203e-06 0.00055491946 0.0021140322   -14.620183   -14.617514 
     800 5.3665666e-05 4.7059546e-06 0.00072448649 0.0027603847   -14.620999   -14.617514 
     900 6.7888079e-05 4.7173154e-06 0.00091648907 0.0034924643   -14.621923   -14.617514 
    1000 8.3767577e-05 4.7299984e-06 0.0011308623 0.0043101016   -14.622955   -14.617514 
Loop time of 0.341114 on 8 procs for 1000 steps with 10 atoms

Performance: 2532.881 tau/day, 2931.575 timesteps/s
16.5% CPU use with 8 MPI tasks x 1 OpenMP threads

MPI task timing breakdown:
Section |  min time  |  avg time  |  max time  |%varavg| %total
---------------------------------------------------------------
Pair    | 0.0007814  | 0.0052876  | 0.010042   |   4.6 |  1.55
Bond    | 8.0415e-05 | 0.0002696  | 0.00054422 |   0.0 |  0.08
Neigh   | 0          | 0          | 0          |   0.0 |  0.00
Comm    | 0.081045   | 0.17693    | 0.27129    |  12.7 | 51.87
Output  | 0.005784   | 0.0062277  | 0.0069154  |   0.5 |  1.83
Modify  | 0.00014396 | 0.00055461 | 0.00092367 |   0.0 |  0.16
Other   |            | 0.1518     |            |       | 44.52

Nlocal:    1.25 ave 3.0 max 0.0 min
Histogram: 3 0 0 1 0 0 3 0 0 1
Nghost:    8.75 ave 10.0 max 7.0 min
Histogram: 1 0 0 3 0 0 1 0 0 3
Neighs:    10.5 ave 24.0 max 0.0 min
Histogram: 3 0 0 1 0 0 0 3 0 1

Total # of neighbors = 84
Ave neighs/atom = 8.4
Ave special neighs/atom = 1.6
Neighbor list builds = 0
Dangerous builds = 0

#write_restart config.${number}.*
Total wall time: 0:00:00
