LAMMPS (4 Jan 2019)
# GayBerne ellipsoids in LJ background fluid

units	     lj
atom_style   ellipsoid
dimension    2

lattice	     sq 0.02
Lattice spacing in x,y,z = 7.07107 7.07107 7.07107
region	     box block 0 20 0 20 -0.5 0.5
create_box   2 box
Created orthogonal box = (0 0 -3.53553) to (141.421 141.421 3.53553)
  4 by 2 by 1 MPI processor grid
create_atoms 1 box
Created 400 atoms
  Time spent = 0.00106821 secs

set	     group all type/fraction 2 0.1 95392
  45 settings made for type/fraction
set 	     type 1 mass 1.0
  355 settings made for mass
set 	     type 2 mass 1.5
  45 settings made for mass
set 	     type 1 shape 1 1 1
  355 settings made for shape
set 	     type 2 shape 3 1 1
  45 settings made for shape
set	     group all quat/random 18238
  400 settings made for quat/random

compute	     rot all temp/asphere
group	     spheroid type 1
355 atoms in group spheroid
variable     dof equal count(spheroid)+2
compute_modify rot extra ${dof}
compute_modify rot extra 357

velocity     all create 2.4 87287 loop geom

pair_style   gayberne 1.0 3.0 1.0 4.0
pair_coeff   1 1 3.0 1.0 1 1 1 1 1 1 2.5
pair_coeff   1 2 3.0 1.0 1 1 1 0 0 0
pair_coeff   2 2 1.0 1.0 1 1 0.2 0 0 0

neighbor     0.8 bin

thermo_style custom step c_rot epair etotal press vol
thermo	     100

timestep     0.002

compute	     q all property/atom quatw quati quatj quatk

#dump	     1 all custom 100 dump.ellipse.gayberne #	     id type x y z c_q[1] c_q[2] c_q[3] c_q[4]

#dump	     2 all image 100 image.*.jpg type type #	     zoom 1.6 center d 0.5 0.5 0.5
#dump_modify  2 pad 4 adiam 1 1.0 adiam 2 2.0

#dump	     3 all movie 100 movie.mpg type type #	     zoom 1.6 center d 0.5 0.5 0.5
#dump_modify  3 pad 4 adiam 1 1.0 adiam 2 2.0

fix	     1 all npt/asphere temp 2.0 2.0 0.1 iso 0.0 1.0 1.0 	       mtk no pchain 0 tchain 1
fix	     2 all enforce2d

compute_modify 1_temp extra ${dof}
compute_modify 1_temp extra 357

# equilibrate to shrink box around dilute system

run	     2000
Neighbor list info ...
  update every 1 steps, delay 10 steps, check yes
  max neighbors/atom: 2000, page size: 100000
  master list distance cutoff = 4.8
  ghost atom cutoff = 4.8
  binsize = 2.4, bins = 59 59 3
  1 neighbor lists, perpetual/occasional/extra = 1 0 0
  (1) pair gayberne, perpetual
      attributes: half, newton on
      pair build: half/bin/atomonly/newton
      stencil: half/bin/2d/newton
      bin: standard
Per MPI rank memory allocation (min/avg/max) = 4.736 | 4.736 | 4.736 Mbytes
Step c_rot E_pair TotEng Press Volume 
       0    2.2718861            0        2.394      0.04788        20000 
     100    1.7443419            0    1.8381003  0.035765442    20557.278 
     200    2.2768798            0    2.3992621  0.046544845    20618.928 
     300    1.8573086            0    1.9571389   0.04239709    18464.842 
     400    2.1707875 -0.00045989278    2.2870073  0.066725499    13701.839 
     500    1.9710982 -0.014545321    2.0486111   0.12205188    8490.5214 
     600    2.0818888  -0.21572832    1.8356955   0.22333255    4697.3035 
     700    2.1551458  -0.68175426    1.4003368   0.60385996     2541.157 
     800    1.8879651   -1.6357045   0.21794544    1.0826917    1444.4484 
     900    2.1993533   -3.0664068  -0.91036919    3.2142529    925.96691 
    1000    1.4285977   -4.3962037   -2.9651113    3.1830461    744.91324 
    1100     1.933074   -4.9398703   -3.0147256    1.4694937    715.30906 
    1200    2.0872875   -4.5711608   -2.4689861    1.4091154    757.68606 
    1300    1.8950043   -4.1568789   -2.2487345   0.19138859    846.69407 
    1400    2.1773467   -3.7905723   -1.6164698   0.55639059    930.77026 
    1500     1.934954   -3.5505876   -1.6187812    0.2572587    1020.2803 
    1600     2.083004   -3.2707357   -1.1794873   0.68661802    1088.5587 
    1700    1.9434093   -3.2434441   -1.3043926   0.72465775    1136.9866 
    1800    1.9731416   -3.2692426   -1.3364608   0.52887378    1162.1022 
    1900    2.0618126   -3.2264372    -1.162807   0.93455596    1155.8306 
    2000     1.894614   -3.3964158   -1.4932323    0.6902187    1125.7713 
Loop time of 0.248131 on 8 procs for 2000 steps with 400 atoms

Performance: 1392812.035 tau/day, 8060.255 timesteps/s
99.6% CPU use with 8 MPI tasks x no OpenMP threads

MPI task timing breakdown:
Section |  min time  |  avg time  |  max time  |%varavg| %total
---------------------------------------------------------------
Pair    | 0.079549   | 0.11124    | 0.13744    |   4.9 | 44.83
Neigh   | 0.0020434  | 0.0021858  | 0.0023517  |   0.2 |  0.88
Comm    | 0.049969   | 0.071748   | 0.10242    |   6.1 | 28.92
Output  | 0.00050639 | 0.00052134 | 0.00059162 |   0.0 |  0.21
Modify  | 0.053084   | 0.058341   | 0.065531   |   1.9 | 23.51
Other   |            | 0.004096   |            |       |  1.65

Nlocal:    50 ave 57 max 34 min
Histogram: 1 1 0 0 0 0 1 0 1 4
Nghost:    120.5 ave 131 max 109 min
Histogram: 1 1 0 1 0 1 2 0 1 1
Neighs:    377.625 ave 484 max 205 min
Histogram: 1 1 0 0 1 0 0 1 3 1

Total # of neighbors = 3021
Ave neighs/atom = 7.5525
Neighbor list builds = 137
Dangerous builds = 80

# run dynamics on dense system

unfix	     1
fix	     1 all nve/asphere

run	     2000
Per MPI rank memory allocation (min/avg/max) = 4.737 | 4.737 | 4.737 Mbytes
Step c_rot E_pair TotEng Press Volume 
    2000     1.894614   -3.3964158   -1.4932323    0.6902187    1125.7713 
    2100    1.8880098   -3.3875135   -1.4857102   0.21017293    1125.7713 
    2200    1.9098636   -3.4103342   -1.5286928   0.58806418    1125.7713 
    2300    1.9069018   -3.4099451   -1.6100279   0.63472594    1125.7713 
    2400     1.977311   -3.4856997   -1.5268537   0.68904675    1125.7713 
    2500     2.002758    -3.514459   -1.4900207   0.59925534    1125.7713 
    2600    1.9616624   -3.4744355   -1.5230913   0.26873254    1125.7713 
    2700    1.8601169   -3.3625756   -1.4872109   0.68399062    1125.7713 
    2800    1.8194249   -3.3190836    -1.514808   0.62536514    1125.7713 
    2900    1.8464929   -3.3451483   -1.5508053   0.60169414    1125.7713 
    3000    1.8894838   -3.3918334   -1.5180413   0.61229516    1125.7713 
    3100    1.8665704   -3.3662718   -1.5275547   0.54326571    1125.7713 
    3200    1.8232158   -3.3201913   -1.5178581   0.82805971    1125.7713 
    3300    1.7949443   -3.2903075   -1.4975529   0.56585658    1125.7713 
    3400    1.8238212   -3.3239706   -1.5068535    1.0560053    1125.7713 
    3500    1.8608901   -3.3601087   -1.5105108   0.57916464    1125.7713 
    3600    1.7677215   -3.2616633   -1.5277324   0.49862053    1125.7713 
    3700    1.7915042   -3.2889246   -1.4824985     0.759105    1125.7713 
    3800    1.8364304   -3.3379888   -1.5393546   0.49899962    1125.7713 
    3900    1.9201505   -3.4246774   -1.4923178   0.45513534    1125.7713 
    4000    1.9138036   -3.4203863    -1.534849     0.403704    1125.7713 
Loop time of 0.271642 on 8 procs for 2000 steps with 400 atoms

Performance: 1272261.018 tau/day, 7362.622 timesteps/s
100.0% CPU use with 8 MPI tasks x no OpenMP threads

MPI task timing breakdown:
Section |  min time  |  avg time  |  max time  |%varavg| %total
---------------------------------------------------------------
Pair    | 0.085682   | 0.13728    | 0.19126    |   9.1 | 50.54
Neigh   | 0.00072618 | 0.0010537  | 0.001421   |   0.7 |  0.39
Comm    | 0.051048   | 0.099818   | 0.14072    |   9.3 | 36.75
Output  | 0.00052589 | 0.00063946 | 0.00089767 |   0.0 |  0.24
Modify  | 0.012293   | 0.016702   | 0.022033   |   2.4 |  6.15
Other   |            | 0.01615    |            |       |  5.95

Nlocal:    50 ave 63 max 36 min
Histogram: 1 1 0 0 1 2 0 2 0 1
Nghost:    118.75 ave 142 max 105 min
Histogram: 2 1 2 0 0 0 2 0 0 1
Neighs:    383.5 ave 541 max 227 min
Histogram: 1 1 0 0 1 2 1 1 0 1

Total # of neighbors = 3068
Ave neighs/atom = 7.67
Neighbor list builds = 46
Dangerous builds = 0

Please see the log.cite file for references relevant to this simulation

Total wall time: 0:00:00
