LAMMPS (4 Jan 2019)
# Big colloid particles and small LJ particles

units		lj
atom_style	sphere
dimension	2

lattice		sq 0.01
Lattice spacing in x,y,z = 10 10 10
region		box block 0 30 0 30 -0.5 0.5
create_box	2 box
Created orthogonal box = (0 0 -5) to (300 300 5)
  4 by 2 by 1 MPI processor grid
create_atoms	1 box
Created 900 atoms
  Time spent = 0.000978246 secs

set		group all type/fraction 2 0.96 23984
  861 settings made for type/fraction

set		type 1 mass 9
  39 settings made for mass
set		type 2 mass 1
  861 settings made for mass

velocity	all create 1.44 87287 loop geom

# multi neighbor and comm for efficiency

neighbor	1 multi
neigh_modify	delay 0
comm_modify     mode multi

# colloid potential

pair_style	colloid 12.5
pair_coeff	1 1  1.0 1.0 5.0 5.0 12.5
pair_coeff	1 2  5.0 1.0 5.0 0.0 7.0
pair_coeff	2 2 10.0 1.0 0.0 0.0 2.5

fix		1 all npt temp 2.0 2.0 1.0 iso 0.0 1.0 10.0 drag 1.0 	        mtk no pchain 0 tchain 1
fix		2 all enforce2d

#dump		1 all atom 1000 dump.colloid

#dump		2 all image 1000 image.*.jpg type type #		zoom 1.5 center d 0.5 0.5 0.5
#dump_modify	2 pad 5 adiam 1 5.0 adiam 2 1.5

#dump		3 all movie 1000 movie.mpg type type #		zoom 1.5 center d 0.5 0.5 0.5
#dump_modify	3 pad 5 adiam 1 5.0 adiam 2 1.5

thermo_style	custom step temp epair etotal press vol
thermo		1000

timestep	0.005

run		50000
Neighbor list info ...
  update every 1 steps, delay 0 steps, check yes
  max neighbors/atom: 2000, page size: 100000
  master list distance cutoff = 13.5
  ghost atom cutoff = 13.5
  binsize = 1.75, bins = 172 172 6
  1 neighbor lists, perpetual/occasional/extra = 1 0 0
  (1) pair colloid, perpetual
      attributes: half, newton on
      pair build: half/multi/newton
      stencil: half/multi/2d/newton
      bin: standard
Per MPI rank memory allocation (min/avg/max) = 4.327 | 4.327 | 4.327 Mbytes
Step Temp E_pair TotEng Press Volume 
       0         1.44 -2.2136534e-06    1.4383978  0.014383923        90000 
    1000    1.9572809 -0.00036743274    1.9547388  0.017982269    98935.161 
    2000     2.068567 -0.0010518227    2.0652168  0.019466739    96307.439 
    3000    2.1787472 0.0045846363     2.180911  0.029249545     68560.31 
    4000    2.1979309 0.0017234058    2.1972121  0.048831814    42699.657 
    5000    2.1541368 0.0068842503    2.1586276   0.07471981    28571.492 
    6000    2.1113172 0.0024197498    2.1113911  0.091799827     21611.61 
    7000    2.0789334 0.0060255452    2.0826491   0.11638119    17868.763 
    8000    2.0614294 0.0062103611    2.0653493   0.13135026    15515.919 
    9000    2.0395499  0.021695915    2.0589796   0.15929373    13880.935 
   10000    2.0350858  0.022144695    2.0549692   0.17101041    12596.379 
   11000    2.0432817    0.0139525    2.0549639   0.18831375     11481.12 
   12000    2.0449916   0.01302052    2.0557399   0.22034429    10542.448 
   13000    2.0411801  0.012180157    2.0510923   0.22385979    9798.3852 
   14000    2.0326705  0.021409459    2.0518214   0.25112813    9188.4489 
   15000    2.0260806  0.026842826    2.0506722   0.27346254     8633.265 
   16000    2.0481319 0.0058496037    2.0517058   0.27162011    8137.9738 
   17000    2.0156697   0.03899178    2.0524219   0.33245224     7715.011 
   18000    2.0210915  0.029429641    2.0482755   0.31835907    7359.6224 
   19000    2.0151442  0.035188571    2.0480937   0.37932821    7066.7504 
   20000    2.0249326  0.029837752    2.0525204   0.36560889    6817.7119 
   21000    2.0205755  0.034784989    2.0531154   0.41672606     6542.795 
   22000    2.0190527  0.034845982    2.0516553   0.40499158    6303.3769 
   23000    2.0120968  0.043663547    2.0535247   0.43916792    6136.0649 
   24000    2.0087349  0.055680236    2.0621833   0.47660086    5923.2464 
   25000    2.0384414  0.020691907    2.0568683   0.46027673    5748.2099 
   26000    2.0170218  0.038232024    2.0530126    0.5030367    5612.8817 
   27000    1.9897327  0.070887096     2.058409   0.56916609     5484.107 
   28000     2.011583   0.05615659    2.0655045   0.54198519    5301.9294 
   29000    2.0058013  0.058918491    2.0624911   0.58093069    5166.3901 
   30000    2.0227313  0.044362309    2.0648461   0.60702294    5053.1486 
   31000    2.0293595   0.03413573    2.0612404   0.57285216    4965.8554 
   32000    2.0176675  0.051342021    2.0667676   0.58641499    4869.8757 
   33000    2.0218401  0.046126022    2.0657196   0.61990352    4789.1102 
   34000    2.0066043  0.064798824    2.0691736   0.67883289    4704.5876 
   35000    2.0139585  0.063786105    2.0755069   0.65698247    4588.6543 
   36000    2.0056622  0.069367064    2.0728007   0.76783665     4501.389 
   37000    1.9878043  0.088619854    2.0742155   0.80160678    4439.6436 
   38000    2.0369932  0.035167056    2.0698969   0.64880049    4405.6384 
   39000    2.0001974  0.079904788    2.0778797   0.76264148    4327.0071 
   40000    2.0065319  0.072139256    2.0764417   0.87826246    4248.8285 
   41000    2.0148653  0.067388648    2.0800152   0.76335784    4189.0251 
   42000    1.9830529   0.10068803    2.0815375   0.83007115    4140.3368 
   43000    2.0200673  0.064522338    2.0823451   0.81457064    4074.9473 
   44000    2.0095687  0.082516305    2.0898521   0.87235879    4010.0844 
   45000    2.0092905  0.075462444    2.0825204   0.89126537    3943.1735 
   46000    1.9936687  0.093858902    2.0853124   0.90124501    3907.7203 
   47000    1.9857927   0.10534362    2.0889299     1.005917     3862.647 
   48000    2.0298137  0.063719279    2.0912776   0.82341564     3827.091 
   49000     2.009832  0.086474629    2.0940735   0.92229035    3792.3929 
   50000    2.0247021  0.075614479    2.0980669   0.88953515    3758.2876 
Loop time of 3.09444 on 8 procs for 50000 steps with 900 atoms

Performance: 6980260.010 tau/day, 16158.009 timesteps/s
99.8% CPU use with 8 MPI tasks x no OpenMP threads

MPI task timing breakdown:
Section |  min time  |  avg time  |  max time  |%varavg| %total
---------------------------------------------------------------
Pair    | 0.37536    | 0.39042    | 0.41854    |   2.2 | 12.62
Neigh   | 0.20695    | 0.23305    | 0.27639    |   4.2 |  7.53
Comm    | 1.1352     | 1.1823     | 1.2236     |   2.5 | 38.21
Output  | 0.0010176  | 0.0010528  | 0.0012184  |   0.2 |  0.03
Modify  | 1.0396     | 1.0684     | 1.1197     |   2.6 | 34.52
Other   |            | 0.2192     |            |       |  7.09

Nlocal:    112.5 ave 154 max 84 min
Histogram: 1 0 2 1 2 1 0 0 0 1
Nghost:    251.625 ave 280 max 231 min
Histogram: 1 2 1 1 0 1 0 0 0 2
Neighs:    747.625 ave 1049 max 549 min
Histogram: 1 1 0 3 2 0 0 0 0 1

Total # of neighbors = 5981
Ave neighs/atom = 6.64556
Neighbor list builds = 3118
Dangerous builds = 0

Please see the log.cite file for references relevant to this simulation

Total wall time: 0:00:03
