LAMMPS (6 Jul 2017)
  using 1 OpenMP thread(s) per MPI task
###############################################################################
#
#
#  This input script is a modified version of the example script spce_hex.lmp
#  which is part of the supplementary (open access) material of the paper
#
#  P. Wirnsberger, D. Frenkel and C. Dellago,
#  "An enhanced version of the heat exchange algorithm with excellent energy
#  conservation properties", J. Chem. Phys. 143, 124104 (2015).
#
#  The full article is available on arXiv: http://arxiv.org/pdf/1507.07081.
#
#
#  Description:
#  ------------
#
#  This file is a LAMMPS input script for carrying out a NEMD simulation of
#  SPC/E water using the HEX/a algorithm. The run produces two files:
#  "out.Tspce_hex" contains the temperature profile and "out.Espce_hex" the time
#  evolution of the total energy.
#
###############################################################################

# energy flux into the reservoir
 variable F         	equal 0.075

# timestep
 variable dt             equal 2.0

# simulation time for the production run (1 ns)
 variable tprod      	equal 5000

# total number of timesteps
 variable Nprod      	equal floor(${tprod}/${dt})
 variable Nprod      	equal floor(5000/${dt})
 variable Nprod      	equal floor(5000/2)

# parameters for the SPC/E model
 variable epsOO       	equal 0.15535
 variable sigOO       	equal 3.166
 variable theta       	equal 109.47

# long-range and short-range cutoffs, respectively
 variable cutC        	equal (xhi-xlo)/2.
 variable cutLJ  	equal 11

# specification of units, spatial dimensions, boundary conditions and atom-style
 units        real
 dimension    3
 boundary     p p p
 atom_style   full
 read_data    "data.spce"
  orthogonal box = (-12.6314 -12.6314 -25.2628) to (12.6314 12.6314 25.2628)
  1 by 2 by 2 MPI processor grid
  reading atoms ...
  3072 atoms
  reading velocities ...
  3072 velocities
  scanning bonds ...
  2 = max bonds/atom
  scanning angles ...
  1 = max angles/atom
  reading bonds ...
  2048 bonds
  reading angles ...
  1024 angles
  2 = max # of 1-2 neighbors
  1 = max # of 1-3 neighbors
  1 = max # of 1-4 neighbors
  2 = max # of special neighbors

# group atoms to molecules
 group    O type 2
1024 atoms in group O
 group    H type 1
2048 atoms in group H
 group    water type 1 2
3072 atoms in group water

# define the pair style with long-range Coulomb interaction
# and short-range LJ interaction
 pair_style    	lj/cut/coul/long ${cutLJ} ${cutC}
 pair_style    	lj/cut/coul/long 11 ${cutC}
 pair_style    	lj/cut/coul/long 11 12.6314
 pair_coeff    	2 2 ${epsOO} ${sigOO}
 pair_coeff    	2 2 0.15535 ${sigOO}
 pair_coeff    	2 2 0.15535 3.166
 pair_coeff    	1 2 0 0
 pair_coeff    	1 1 0 0

# use Ewald summation with a precision of 1.e-5
 kspace_style   ewald 1.e-5

# use harmonic bonds between sites of a molecules
# NOTE: this will not have any effects as we use RATTLE to keep the bonds fixed,
#       but it is recommended.
 bond_style    	harmonic
 angle_style   	harmonic
 bond_coeff    	1 1000.00 1.000
 angle_coeff   	1 100.0 ${theta}
 angle_coeff   	1 100.0 109.47

# use standard correction terms for the truncated tail of the LJ potential
 pair_modify tail yes

# increase neigbor skin because of the large timestep
 neighbor  4.5 bin

 variable    Nsamp    equal 10
 variable    Nrepeat  equal floor(${Nprod}/${Nsamp})
 variable    Nrepeat  equal floor(2500/${Nsamp})
 variable    Nrepeat  equal floor(2500/10)
 variable    Nevery   equal ${Nsamp}*${Nrepeat}
 variable    Nevery   equal 10*${Nrepeat}
 variable    Nevery   equal 10*250

# compute the centre of mass velocity of the box (vcmx, vcmy, vcmz)
 variable vcmx equal "vcm(all,x)"
 variable vcmy equal "vcm(all,y)"
 variable vcmz equal "vcm(all,z)"
 variable vcm2 equal round(100000000000000000000*(v_vcmx*v_vcmx+v_vcmy*v_vcmy+v_vcmz*v_vcmz))/100000000000000000000

# compute temperature, pressure, potential energy, kinetic energy and total energy
 compute   cT  all temp
 compute   cP  all pressure thermo_temp
 compute   cPe all pe
 compute   cKe all ke
 variable  vE  equal c_cKe+c_cPe

# specify the reservoir extents
 variable Lz          equal zhi-zlo
 variable delta       equal 4
 variable dz          equal ${Lz}/60
 variable dz          equal 50.5255/60
 variable zlo_Thi     equal -${Lz}/4.-${delta}/2.
 variable zlo_Thi     equal -50.5255/4.-${delta}/2.
 variable zlo_Thi     equal -50.5255/4.-4/2.
 variable zhi_Thi     equal ${zlo_Thi}+${delta}
 variable zhi_Thi     equal -14.631375+${delta}
 variable zhi_Thi     equal -14.631375+4
 variable zlo_Tlo     equal ${Lz}/4.-${delta}/2.
 variable zlo_Tlo     equal 50.5255/4.-${delta}/2.
 variable zlo_Tlo     equal 50.5255/4.-4/2.
 variable zhi_Tlo     equal ${zlo_Tlo}+${delta}
 variable zhi_Tlo     equal 10.631375+${delta}
 variable zhi_Tlo     equal 10.631375+4

# create regions of low and high temperature and apply thermostats
 region   Thi_region     block INF INF INF INF ${zlo_Thi} ${zhi_Thi}
 region   Thi_region     block INF INF INF INF -14.631375 ${zhi_Thi}
 region   Thi_region     block INF INF INF INF -14.631375 -10.631375
 region   Tlo_region     block INF INF INF INF ${zlo_Tlo} ${zhi_Tlo}
 region   Tlo_region     block INF INF INF INF 10.631375 ${zhi_Tlo}
 region   Tlo_region     block INF INF INF INF 10.631375 14.631375

# compute temperature of reservoirs using 3 degrees of freedom for every atom
 compute  cTlo   water temp/region Tlo_region
 compute  cThi   water temp/region Thi_region

# rescale temperature to correct for the constraint bonds (6 instead of 9 degrees of freedom per molecule)
 variable  Tlo_act    equal c_cTlo/2*3
 variable  Thi_act    equal c_cThi/2*3

# thermostat the reservoirs using the eHEX algorithm
# NOTE: add the keyword "hex" at the end of each of the two following lines
#       if you want to use the HEX algorithm.

 fix fHi all ehex 1  ${F}   region Thi_region com constrain hex
 fix fHi all ehex 1  0.075   region Thi_region com constrain hex
 fix fLo all ehex 1 -${F}   region Tlo_region com constrain hex
 fix fLo all ehex 1 -0.075   region Tlo_region com constrain hex

# use velocity Verlet integration
 fix fNVE all nve

# calculate the (kinetic) temperature from the kinetic
# energy per atom
# kB is Boltzmann's constant
# NOTE: For simplicity, we do not subtract the centre of mass
#       velocity of the individual slabs in this example script.
#       However, we did take this into account in the publication.
#       (The differences are negligible for our setup.)

 variable  kB  equal  0.001987204
 compute   ke  water  ke/atom
 variable  T   atom   c_ke/${kB}
 variable  T   atom   c_ke/0.001987204

# use RATTLE with a precision of 1.e-10
 fix    fRattle all rattle 1e-10 400 0 b 1 a 1
  0 = # of size 2 clusters
  0 = # of size 3 clusters
  0 = # of size 4 clusters
  1024 = # of frozen angles

# output the timestep, temperatures (average, cold reservoir, hot reservoir), energies (kinetic, potential and total),
# pressure and squared com velocity every 100 timesteps
 reset_timestep  0
 timestep        ${dt}
 timestep        2

 thermo_style    custom step temp v_Tlo_act v_Thi_act ke pe etotal press v_vcm2
 thermo          100

 compute         cchT  all  chunk/atom bin/1d z lower ${dz}
 compute         cchT  all  chunk/atom bin/1d z lower 0.842091666666667
 fix             fchT  all  ave/chunk  ${Nsamp} ${Nrepeat} ${Nevery} cchT v_T file out.Tspce_hex
 fix             fchT  all  ave/chunk  10 ${Nrepeat} ${Nevery} cchT v_T file out.Tspce_hex
 fix             fchT  all  ave/chunk  10 250 ${Nevery} cchT v_T file out.Tspce_hex
 fix             fchT  all  ave/chunk  10 250 2500 cchT v_T file out.Tspce_hex

 fix             fE    all  ave/time 10 500 5000 v_vE file out.Espce_hex
 run             ${Nprod}
 run             2500
Ewald initialization ...
WARNING: Using 12-bit tables for long-range coulomb (../kspace.cpp:321)
  G vector (1/distance) = 0.234029
  estimated absolute RMS force accuracy = 0.00363217
  estimated relative force accuracy = 1.09382e-05
  KSpace vectors: actual max1d max3d = 903 11 6083
                  kxmax kymax kzmax  = 6 6 11
Neighbor list info ...
  update every 1 steps, delay 10 steps, check yes
  max neighbors/atom: 2000, page size: 100000
  master list distance cutoff = 17.1314
  ghost atom cutoff = 17.1314
  binsize = 8.5657, bins = 3 3 6
  1 neighbor lists, perpetual/occasional/extra = 1 0 0
  (1) pair lj/cut/coul/long, perpetual
      attributes: half, newton on
      pair build: half/bin/newton
      stencil: half/bin/3d/newton
      bin: standard
Per MPI rank memory allocation (min/avg/max) = 30.04 | 30.23 | 30.42 Mbytes
Step Temp v_Tlo_act v_Thi_act KinEng PotEng TotEng Press v_vcm2 
       0    399.28553    345.31026    514.38426    2436.3278    -10062.57   -7626.2426    342.82044            0 
     100     402.1258     341.0178    505.14251    2453.6583   -10079.906   -7626.2482    562.68476            0 
     200    399.16289    355.34723    442.40709    2435.5794    -10061.71   -7626.1307    365.97508            0 
     300    389.05913    342.16944    433.67236    2373.9292   -10000.067   -7626.1378    539.80245            0 
     400    393.27133    329.40151    432.35761    2399.6308   -10025.442   -7625.8112    884.15231            0 
     500    411.89479    341.66983    481.33789    2513.2659   -10140.321   -7627.0547    981.60288            0 
     600    405.43224    338.51532    449.40195    2473.8333   -10100.326   -7626.4923     555.6292            0 
     700     392.6407    319.85626      498.355    2395.7829   -10022.182   -7626.3992    986.27342            0 
     800    407.09665    328.66907    488.06548    2483.9891   -10111.079   -7627.0902    84.875409            0 
     900    402.18107    330.49717    502.77288    2453.9955   -10080.426   -7626.4308    1054.1226            0 
    1000    388.69136     314.2823    439.98407    2371.6851   -9998.1812    -7626.496    1049.3978            0 
    1100    396.06597    320.38031    474.22063    2416.6829   -10042.691   -7626.0081     930.2425            0 
    1200    400.84606    325.24865    428.25336    2445.8497   -10072.756   -7626.9062    701.78596            0 
    1300    405.69045    357.66569    481.98263    2475.4088   -10102.301   -7626.8922    1132.6332            0 
    1400    401.41857    313.33235    487.52877     2449.343   -10075.816   -7626.4731    919.26978            0 
    1500    402.19878    306.48496    426.06221    2454.1036   -10080.912   -7626.8081    213.13179            0 
    1600    400.49586    349.72578    418.44928    2443.7128   -10070.238   -7626.5254    325.21858            0 
    1700    400.85147    335.73526    482.66702    2445.8827   -10072.624   -7626.7416    971.81557            0 
    1800    402.85218     316.5171    420.40754    2458.0905   -10085.013   -7626.9229    258.56392            0 
    1900    412.99358    348.55981    462.01991    2519.9704   -10147.096   -7627.1254    596.41083            0 
    2000    407.36264     340.0308    526.93287     2485.612    -10113.08   -7627.4682    9.7322839            0 
    2100    401.05617    326.71001    446.09943    2447.1317   -10074.241   -7627.1097    458.77169            0 
    2200    394.81449    312.66212    436.29404    2409.0467    -10035.47   -7626.4233    928.73734            0 
    2300    410.10991    363.09297     485.1135    2502.3751   -10129.482   -7627.1071    428.70004            0 
    2400    401.49499    314.13051    443.19437    2449.8093   -10076.398   -7626.5888     573.6258            0 
    2500    402.86778    311.39734    506.43347    2458.1857   -10084.731   -7626.5457    592.39153            0 
Loop time of 71.9665 on 4 procs for 2500 steps with 3072 atoms

Performance: 6.003 ns/day, 3.998 hours/ns, 34.738 timesteps/s
99.2% CPU use with 4 MPI tasks x 1 OpenMP threads

MPI task timing breakdown:
Section |  min time  |  avg time  |  max time  |%varavg| %total
---------------------------------------------------------------
Pair    | 36.124     | 40.359     | 44.211     |  53.7 | 56.08
Bond    | 0.0024683  | 0.0034488  | 0.004508   |   1.2 |  0.00
Kspace  | 17.795     | 21.08      | 24.402     |  63.3 | 29.29
Neigh   | 2.5563     | 2.5597     | 2.5629     |   0.2 |  3.56
Comm    | 1.5892     | 2.1227     | 3.0062     |  37.5 |  2.95
Output  | 0.0046675  | 0.0047395  | 0.0049286  |   0.2 |  0.01
Modify  | 5.6365     | 5.6498     | 5.6669     |   0.5 |  7.85
Other   |            | 0.1865     |            |       |  0.26

Nlocal:    768 ave 807 max 744 min
Histogram: 1 1 0 0 1 0 0 0 0 1
Nghost:    15112 ave 15298 max 14933 min
Histogram: 1 0 1 0 0 0 1 0 0 1
Neighs:    770409 ave 843408 max 710897 min
Histogram: 2 0 0 0 0 0 0 1 0 1

Total # of neighbors = 3081637
Ave neighs/atom = 1003.14
Ave special neighs/atom = 2
Neighbor list builds = 74
Dangerous builds = 0

Total wall time: 0:01:12
