LAMMPS (6 Jul 2017)
  using 1 OpenMP thread(s) per MPI task
###############################################################################
#
#
#  This input script is a modified version of the example script lj_ehex.lmp
#  which is part of the supplementary (open access) material of the paper
#
#  P. Wirnsberger, D. Frenkel and C. Dellago,
#  "An enhanced version of the heat exchange algorithm with excellent energy
#  conservation properties", J. Chem. Phys. 143, 124104 (2015).
#
#  The full article is available on arXiv: http://arxiv.org/pdf/1507.07081.
#
#
#  Description:
#  ------------
#
#  This file is a LAMMPS input script for carrying out a NEMD simulation of
#  Lennard-Jones using the eHEX/a algorithm. The run produces two files:
#  "out.Tlj_ehex" contains the temperature profile and "out.Elj_ehex" the time
#  evolution of the total energy.
#
###############################################################################

# heat flux
variable J          equal 0.15

# timestep
variable dt         equal 0.005

# cutoff radius for shifted LJ-potential
variable rc         equal 3.0

# simulation time for the production run
variable tprod      equal 20

# total number of timesteps
variable Nprod      equal floor(${tprod}/${dt})
variable Nprod      equal floor(20/${dt})
variable Nprod      equal floor(20/0.005)

# equilibrated steady state configuration
read_data           "data.lj"
  orthogonal box = (-5.28998 -5.28998 -10.58) to (5.28998 5.28998 10.58)
  1 by 1 by 1 MPI processor grid
  reading atoms ...
  2000 atoms
  reading velocities ...
  2000 velocities

# use LJ shifted force pair style
pair_style      lj/sf ${rc}
pair_style      lj/sf 3

# with coefficients eps = 1, sigma = 1, and rc = 3.0
pair_coeff      1 1 1.0 1.0 ${rc}
pair_coeff      1 1 1.0 1.0 3

# increase neigbor skin because of the large timestep
neighbor  0.8 bin

# options used for fix ave/time; sample the quantities every 10 steps
variable    Nsamp    equal 10
variable    Nrepeat  equal floor(${Nprod}/${Nsamp})
variable    Nrepeat  equal floor(4000/${Nsamp})
variable    Nrepeat  equal floor(4000/10)
variable    Nevery   equal ${Nsamp}*${Nrepeat}
variable    Nevery   equal 10*${Nrepeat}
variable    Nevery   equal 10*400

# box dimensions
variable Lz  equal zhi-zlo
variable Lx  equal xhi-xlo
variable Ly  equal yhi-ylo

# reservoir width in z-direction
variable delta     equal 2.

# specify z-extents of both reservoirs
variable zlo_Thi   equal -${Lz}/4.-${delta}/2.
variable zlo_Thi   equal -21.16/4.-${delta}/2.
variable zlo_Thi   equal -21.16/4.-2/2.
variable zhi_Thi   equal ${zlo_Thi}+${delta}
variable zhi_Thi   equal -6.29+${delta}
variable zhi_Thi   equal -6.29+2
variable zlo_Tlo   equal ${zlo_Thi}+${Lz}/2.
variable zlo_Tlo   equal -6.29+${Lz}/2.
variable zlo_Tlo   equal -6.29+21.16/2.
variable zhi_Tlo   equal ${zlo_Tlo}+${delta}
variable zhi_Tlo   equal 4.29+${delta}
variable zhi_Tlo   equal 4.29+2

# resolution for fix ave/spatial
variable dz        equal ${Lz}/60
variable dz        equal 21.16/60

# compute per-atom kinetic energy and temperature, respectively
# NOTE: In this example we ignored the centre of mass (com) velocities
#       of the individual bins for simplicity. However, we took that
#       into account for the publication.
compute        ke        all   ke/atom
variable       T         atom  c_ke/1.5

# specify the reservoirs
region         Thi_region     block  INF INF INF INF  ${zlo_Thi} ${zhi_Thi}
region         Thi_region     block  INF INF INF INF  -6.29 ${zhi_Thi}
region         Thi_region     block  INF INF INF INF  -6.29 -4.29
region         Tlo_region     block  INF INF INF INF  ${zlo_Tlo} ${zhi_Tlo}
region         Tlo_region     block  INF INF INF INF  4.29 ${zhi_Tlo}
region         Tlo_region     block  INF INF INF INF  4.29 6.29

# compute the temperature of the individual region
compute        cTlo  all temp/region Tlo_region
compute        cThi  all temp/region Thi_region

# calculate the energy flux from the specified heat flux
variable       F  equal  ${J}*${Lx}*${Ly}*2.
variable       F  equal  0.15*${Lx}*${Ly}*2.
variable       F  equal  0.15*10.57996*${Ly}*2.
variable       F  equal  0.15*10.57996*10.57996*2.

# use fix ehex to create the gradient
# hot reservoir
fix            fHi all ehex 1 +${F} region Thi_region
fix            fHi all ehex 1 +33.58066608048 region Thi_region

# cold reservoir
fix            fLo all ehex 1 -${F} region Tlo_region
fix            fLo all ehex 1 -33.58066608048 region Tlo_region

# use velocity Verlet for integration
fix            fNVEGrad  all   nve

# calculate the centre of mass velocity of the entire box (vcmx, vcmy, vcmz)
variable vcmx equal "vcm(all,x)"
variable vcmy equal "vcm(all,y)"
variable vcmz equal "vcm(all,z)"
variable vcm2 equal round(100000000000000000000*(v_vcmx*v_vcmx+v_vcmy*v_vcmy+v_vcmz*v_vcmz))/100000000000000000000

# specify the timestep
timestep  ${dt}
timestep  0.005

# frequency for console output
thermo    100

# print timestep, temperature, total energy and v_com^2 to console
thermo_style   custom step temp etotal ke pe v_vcm2

# calculate spatial average of temperature
compute	       cchT  all  chunk/atom bin/1d z lower ${dz}
compute	       cchT  all  chunk/atom bin/1d z lower 0.352666666666667
fix            fchT  all  ave/chunk  ${Nsamp} ${Nrepeat} ${Nevery} cchT v_T file out.Tlj_ehex
fix            fchT  all  ave/chunk  10 ${Nrepeat} ${Nevery} cchT v_T file out.Tlj_ehex
fix            fchT  all  ave/chunk  10 400 ${Nevery} cchT v_T file out.Tlj_ehex
fix            fchT  all  ave/chunk  10 400 4000 cchT v_T file out.Tlj_ehex

# compute the total energy
compute   cKe all ke
compute   cPe all pe
variable  E   equal c_cKe+c_cPe

# track the time evolution of the total energy
fix       fE  all ave/time ${Nsamp} 1000 10000 v_E file out.Elj_ehex
fix       fE  all ave/time 10 1000 10000 v_E file out.Elj_ehex

# production run
run            ${Nprod}
run            4000
Neighbor list info ...
  update every 1 steps, delay 10 steps, check yes
  max neighbors/atom: 2000, page size: 100000
  master list distance cutoff = 3.8
  ghost atom cutoff = 3.8
  binsize = 1.9, bins = 6 6 12
  1 neighbor lists, perpetual/occasional/extra = 1 0 0
  (1) pair lj/sf, perpetual
      attributes: half, newton on
      pair build: half/bin/atomonly/newton
      stencil: half/bin/3d/newton
      bin: standard
Per MPI rank memory allocation (min/avg/max) = 3.837 | 3.837 | 3.837 Mbytes
Step Temp TotEng KinEng PotEng v_vcm2 
       0   0.72367949   -4.1076054    1.0849765   -5.1925819            0 
     100   0.70972881   -4.1076058    1.0640609   -5.1716667            0 
     200    0.7346904   -4.1075712    1.1014846   -5.2090558            0 
     300   0.71337449   -4.1075386    1.0695267   -5.1770653            0 
     400   0.71620597   -4.1075216    1.0737718   -5.1812934            0 
     500   0.70326496   -4.1076588      1.05437   -5.1620288            0 
     600   0.70902257    -4.107556    1.0630021    -5.170558            0 
     700   0.72451695   -4.1076046     1.086232   -5.1938366            0 
     800   0.70887442   -4.1075387      1.06278   -5.1703187            0 
     900   0.71996364   -4.1075712    1.0794055   -5.1869767            0 
    1000   0.71807071   -4.1076447    1.0765675   -5.1842122            0 
    1100   0.71927065   -4.1076086    1.0783665   -5.1859751            0 
    1200     0.714539    -4.107639    1.0712726   -5.1789116            0 
    1300   0.71901271   -4.1076154    1.0779798   -5.1855952            0 
    1400   0.71437651   -4.1075795     1.071029   -5.1786085            0 
    1500   0.73659678   -4.1076371    1.1043427   -5.2119798            0 
    1600    0.7192564   -4.1075831    1.0783452   -5.1859282            0 
    1700   0.72828871   -4.1076169    1.0918868   -5.1995038            0 
    1800   0.74091328   -4.1076117    1.1108142   -5.2184259            0 
    1900   0.71241622    -4.107557      1.06809    -5.175647            0 
    2000   0.71527155   -4.1075473    1.0723709   -5.1799182            0 
    2100   0.73363939   -4.1076148    1.0999089   -5.2075237            0 
    2200   0.71290423   -4.1075437    1.0688217   -5.1763653            0 
    2300   0.73692897   -4.1076562    1.1048408   -5.2124969            0 
    2400   0.71600285   -4.1076265    1.0734673   -5.1810938            0 
    2500   0.73236161   -4.1075572    1.0979931   -5.2055503            0 
    2600   0.73357163    -4.107634    1.0998073   -5.2074412            0 
    2700   0.72016709   -4.1075654    1.0797105   -5.1872759            0 
    2800   0.71570754   -4.1076472    1.0730245   -5.1806717            0 
    2900   0.73364246     -4.10765    1.0999135   -5.2075634            0 
    3000   0.72292088   -4.1075622    1.0838391   -5.1914013            0 
    3100   0.72100839   -4.1076007    1.0809718   -5.1885725            0 
    3200   0.72180518   -4.1075528    1.0821664   -5.1897192            0 
    3300   0.71842671   -4.1075814    1.0771012   -5.1846826            0 
    3400    0.7205724   -4.1076256    1.0803182   -5.1879438            0 
    3500   0.72899611   -4.1075979    1.0929474   -5.2005453            0 
    3600   0.71659206   -4.1075673    1.0743506   -5.1819179            0 
    3700    0.7175301   -4.1076073     1.075757   -5.1833643            0 
    3800   0.71294047   -4.1075789     1.068876   -5.1764549            0 
    3900   0.72663476   -4.1076812    1.0894072   -5.1970883            0 
    4000   0.71457239   -4.1075877    1.0713227   -5.1789103            0 
Loop time of 15.176 on 1 procs for 4000 steps with 2000 atoms

Performance: 113864.349 tau/day, 263.575 timesteps/s
99.7% CPU use with 1 MPI tasks x 1 OpenMP threads

MPI task timing breakdown:
Section |  min time  |  avg time  |  max time  |%varavg| %total
---------------------------------------------------------------
Pair    | 13.244     | 13.244     | 13.244     |   0.0 | 87.27
Neigh   | 1.0619     | 1.0619     | 1.0619     |   0.0 |  7.00
Comm    | 0.1873     | 0.1873     | 0.1873     |   0.0 |  1.23
Output  | 0.00595    | 0.00595    | 0.00595    |   0.0 |  0.04
Modify  | 0.62006    | 0.62006    | 0.62006    |   0.0 |  4.09
Other   |            | 0.0563     |            |       |  0.37

Nlocal:    2000 ave 2000 max 2000 min
Histogram: 1 0 0 0 0 0 0 0 0 0
Nghost:    6035 ave 6035 max 6035 min
Histogram: 1 0 0 0 0 0 0 0 0 0
Neighs:    192235 ave 192235 max 192235 min
Histogram: 1 0 0 0 0 0 0 0 0 0

Total # of neighbors = 192235
Ave neighs/atom = 96.1175
Neighbor list builds = 162
Dangerous builds = 0

Total wall time: 0:00:15
