LAMMPS (6 Jul 2017)
  using 1 OpenMP thread(s) per MPI task
###############################################################################
#
#
#  This input script is a modified version of the example script lj_hex.lmp
#  which is part of the supplementary (open access) material of the paper
#
#  P. Wirnsberger, D. Frenkel and C. Dellago,
#  "An enhanced version of the heat exchange algorithm with excellent energy
#  conservation properties", J. Chem. Phys. 143, 124104 (2015).
#
#  The full article is available on arXiv: http://arxiv.org/pdf/1507.07081.
#
#
#  Description:
#  ------------
#
#  This file is a LAMMPS input script for carrying out a NEMD simulation of
#  Lennard-Jones using the HEX/a algorithm. The run produces two files:
#  "out.Tlj_hex" contains the temperature profile and "out.Elj_hex" the time
#  evolution of the total energy.
#
###############################################################################

# heat flux
variable J          equal 0.15

# timestep
variable dt         equal 0.005

# cutoff radius for shifted LJ-potential
variable rc         equal 3.0

# simulation time for the production run
variable tprod      equal 20

# total number of timesteps
variable Nprod      equal floor(${tprod}/${dt})
variable Nprod      equal floor(20/${dt})
variable Nprod      equal floor(20/0.005)

# equilibrated steady state configuration
read_data           "data.lj"
  orthogonal box = (-5.28998 -5.28998 -10.58) to (5.28998 5.28998 10.58)
  1 by 1 by 1 MPI processor grid
  reading atoms ...
  2000 atoms
  reading velocities ...
  2000 velocities

# use LJ shifted force pair style
pair_style      lj/sf ${rc}
pair_style      lj/sf 3

# with coefficients eps = 1, sigma = 1, and rc = 3.0
pair_coeff      1 1 1.0 1.0 ${rc}
pair_coeff      1 1 1.0 1.0 3

# increase neigbor skin because of the large timestep
neighbor  0.8 bin

# options used for fix ave/time; sample the quantities every 10 steps
variable    Nsamp    equal 10
variable    Nrepeat  equal floor(${Nprod}/${Nsamp})
variable    Nrepeat  equal floor(4000/${Nsamp})
variable    Nrepeat  equal floor(4000/10)
variable    Nevery   equal ${Nsamp}*${Nrepeat}
variable    Nevery   equal 10*${Nrepeat}
variable    Nevery   equal 10*400

# box dimensions
variable Lz  equal zhi-zlo
variable Lx  equal xhi-xlo
variable Ly  equal yhi-ylo

# reservoir width in z-direction
variable delta     equal 2.

# specify z-extents of both reservoirs
variable zlo_Thi   equal -${Lz}/4.-${delta}/2.
variable zlo_Thi   equal -21.16/4.-${delta}/2.
variable zlo_Thi   equal -21.16/4.-2/2.
variable zhi_Thi   equal ${zlo_Thi}+${delta}
variable zhi_Thi   equal -6.29+${delta}
variable zhi_Thi   equal -6.29+2
variable zlo_Tlo   equal ${zlo_Thi}+${Lz}/2.
variable zlo_Tlo   equal -6.29+${Lz}/2.
variable zlo_Tlo   equal -6.29+21.16/2.
variable zhi_Tlo   equal ${zlo_Tlo}+${delta}
variable zhi_Tlo   equal 4.29+${delta}
variable zhi_Tlo   equal 4.29+2

# resolution for fix ave/spatial
variable dz        equal ${Lz}/60
variable dz        equal 21.16/60

# compute per-atom kinetic energy and temperature, respectively
# NOTE: In this example we ignored the centre of mass (com) velocities
#       of the individual bins for simplicity. However, we took that
#       into account for the publication.
compute        ke        all   ke/atom
variable       T         atom  c_ke/1.5

# specify the reservoirs
region         Thi_region     block  INF INF INF INF  ${zlo_Thi} ${zhi_Thi}
region         Thi_region     block  INF INF INF INF  -6.29 ${zhi_Thi}
region         Thi_region     block  INF INF INF INF  -6.29 -4.29
region         Tlo_region     block  INF INF INF INF  ${zlo_Tlo} ${zhi_Tlo}
region         Tlo_region     block  INF INF INF INF  4.29 ${zhi_Tlo}
region         Tlo_region     block  INF INF INF INF  4.29 6.29

# compute the temperature of the individual region
compute        cTlo  all temp/region Tlo_region
compute        cThi  all temp/region Thi_region

# calculate the energy flux from the specified heat flux
variable       F  equal  ${J}*${Lx}*${Ly}*2.
variable       F  equal  0.15*${Lx}*${Ly}*2.
variable       F  equal  0.15*10.57996*${Ly}*2.
variable       F  equal  0.15*10.57996*10.57996*2.

# use fix ehex to create the gradient
# hot reservoir
fix            fHi all ehex 1 +${F} region Thi_region  hex
fix            fHi all ehex 1 +33.58066608048 region Thi_region  hex

# cold reservoir
fix            fLo all ehex 1 -${F} region Tlo_region  hex
fix            fLo all ehex 1 -33.58066608048 region Tlo_region  hex

# use velocity Verlet for integration
fix            fNVEGrad  all   nve

# calculate the centre of mass velocity of the entire box (vcmx, vcmy, vcmz)
variable vcmx equal "vcm(all,x)"
variable vcmy equal "vcm(all,y)"
variable vcmz equal "vcm(all,z)"
variable vcm2 equal round(100000000000000000000*(v_vcmx*v_vcmx+v_vcmy*v_vcmy+v_vcmz*v_vcmz))/100000000000000000000

# specify the timestep
timestep  ${dt}
timestep  0.005

# frequency for console output
thermo    100

# print timestep, temperature, total energy and v_com^2 to console
thermo_style   custom step temp etotal ke pe v_vcm2

# calculate spatial average of temperature
compute	       cchT  all  chunk/atom bin/1d z lower ${dz}
compute	       cchT  all  chunk/atom bin/1d z lower 0.352666666666667
fix            fchT  all  ave/chunk  ${Nsamp} ${Nrepeat} ${Nevery} cchT v_T file out.Tlj_hex
fix            fchT  all  ave/chunk  10 ${Nrepeat} ${Nevery} cchT v_T file out.Tlj_hex
fix            fchT  all  ave/chunk  10 400 ${Nevery} cchT v_T file out.Tlj_hex
fix            fchT  all  ave/chunk  10 400 4000 cchT v_T file out.Tlj_hex

# compute the total energy
compute   cKe all ke
compute   cPe all pe
variable  E   equal c_cKe+c_cPe

# track the time evolution of the total energy
fix       fE  all ave/time ${Nsamp} 1000 10000 v_E file out.Elj_hex
fix       fE  all ave/time 10 1000 10000 v_E file out.Elj_hex

# production run
run            ${Nprod}
run            4000
Neighbor list info ...
  update every 1 steps, delay 10 steps, check yes
  max neighbors/atom: 2000, page size: 100000
  master list distance cutoff = 3.8
  ghost atom cutoff = 3.8
  binsize = 1.9, bins = 6 6 12
  1 neighbor lists, perpetual/occasional/extra = 1 0 0
  (1) pair lj/sf, perpetual
      attributes: half, newton on
      pair build: half/bin/atomonly/newton
      stencil: half/bin/3d/newton
      bin: standard
Per MPI rank memory allocation (min/avg/max) = 3.837 | 3.837 | 3.837 Mbytes
Step Temp TotEng KinEng PotEng v_vcm2 
       0   0.72367949   -4.1076054    1.0849765   -5.1925819            0 
     100   0.70972951   -4.1076052     1.064062   -5.1716672            0 
     200   0.73469098    -4.107572    1.1014855   -5.2090574            0 
     300   0.71339602   -4.1075417     1.069559   -5.1771007            0 
     400   0.71622576   -4.1075259    1.0738015   -5.1813274            0 
     500   0.70353974   -4.1076647     1.054782   -5.1624467            0 
     600   0.70685686   -4.1075768    1.0597551    -5.167332            0 
     700   0.72966263   -4.1076783    1.0939467    -5.201625            0 
     800   0.72797985   -4.1076747    1.0914238   -5.1990985            0 
     900   0.72723799   -4.1075449    1.0903116   -5.1978564            0 
    1000   0.72995402   -4.1076059    1.0943836   -5.2019894            0 
    1100   0.70505894   -4.1075545    1.0570596   -5.1646141            0 
    1200   0.71097734   -4.1076062    1.0659328    -5.173539            0 
    1300   0.73099125   -4.1076713    1.0959386     -5.20361            0 
    1400   0.71521932   -4.1075998    1.0722926   -5.1798924            0 
    1500   0.71810692   -4.1076072    1.0766218    -5.184229            0 
    1600   0.71414999   -4.1075259    1.0706894   -5.1782153            0 
    1700   0.70488556   -4.1075529    1.0567997   -5.1643526            0 
    1800    0.7094736   -4.1075409    1.0636783   -5.1712192            0 
    1900   0.72125438   -4.1075698    1.0813406   -5.1889104            0 
    2000   0.72320048   -4.1076509    1.0842583   -5.1919092            0 
    2100   0.71874788   -4.1076116    1.0775828   -5.1851943            0 
    2200   0.71263891   -4.1075713    1.0684239   -5.1759952            0 
    2300     0.726336   -4.1076838    1.0889592    -5.196643            0 
    2400   0.71642604   -4.1076824    1.0741017   -5.1817841            0 
    2500   0.71582943   -4.1075806    1.0732073   -5.1807879            0 
    2600   0.72253234   -4.1076408    1.0832566   -5.1908974            0 
    2700   0.73587742   -4.1076989    1.1032642   -5.2109631            0 
    2800   0.71403264   -4.1075428    1.0705134   -5.1780562            0 
    2900   0.72680671   -4.1075977     1.089665   -5.1972626            0 
    3000   0.72891481   -4.1076329    1.0928255   -5.2004584            0 
    3100   0.71930872   -4.1075783    1.0784236   -5.1860019            0 
    3200   0.71728269   -4.1075812    1.0753861   -5.1829673            0 
    3300   0.71831486   -4.1076327    1.0769335   -5.1845663            0 
    3400   0.72201439   -4.1075773    1.0824801   -5.1900573            0 
    3500   0.72396565   -4.1076373    1.0854055   -5.1930428            0 
    3600   0.73128015    -4.107701    1.0963718   -5.2040727            0 
    3700   0.72401967   -4.1076815    1.0854865    -5.193168            0 
    3800    0.7302225   -4.1076799    1.0947861    -5.202466            0 
    3900   0.71026628   -4.1076045    1.0648667   -5.1724712            0 
    4000   0.71887054    -4.107673    1.0777667   -5.1854397            0 
Loop time of 14.8926 on 1 procs for 4000 steps with 2000 atoms

Performance: 116030.711 tau/day, 268.590 timesteps/s
99.7% CPU use with 1 MPI tasks x 1 OpenMP threads

MPI task timing breakdown:
Section |  min time  |  avg time  |  max time  |%varavg| %total
---------------------------------------------------------------
Pair    | 13.063     | 13.063     | 13.063     |   0.0 | 87.72
Neigh   | 1.0368     | 1.0368     | 1.0368     |   0.0 |  6.96
Comm    | 0.18504    | 0.18504    | 0.18504    |   0.0 |  1.24
Output  | 0.0055242  | 0.0055242  | 0.0055242  |   0.0 |  0.04
Modify  | 0.54693    | 0.54693    | 0.54693    |   0.0 |  3.67
Other   |            | 0.05521    |            |       |  0.37

Nlocal:    2000 ave 2000 max 2000 min
Histogram: 1 0 0 0 0 0 0 0 0 0
Nghost:    6037 ave 6037 max 6037 min
Histogram: 1 0 0 0 0 0 0 0 0 0
Neighs:    192389 ave 192389 max 192389 min
Histogram: 1 0 0 0 0 0 0 0 0 0

Total # of neighbors = 192389
Ave neighs/atom = 96.1945
Neighbor list builds = 159
Dangerous builds = 0

Total wall time: 0:00:14
