LAMMPS (6 Jul 2017)
  using 1 OpenMP thread(s) per MPI task
###############################################################################
#
#
#  This input script is a modified version of the example script spce_hex.lmp
#  which is part of the supplementary (open access) material of the paper
#
#  P. Wirnsberger, D. Frenkel and C. Dellago,
#  "An enhanced version of the heat exchange algorithm with excellent energy
#  conservation properties", J. Chem. Phys. 143, 124104 (2015).
#
#  The full article is available on arXiv: http://arxiv.org/pdf/1507.07081.
#
#
#  Description:
#  ------------
#
#  This file is a LAMMPS input script for carrying out a NEMD simulation of
#  SPC/E water using the HEX/a algorithm. The run produces two files:
#  "out.Tspce_hex" contains the temperature profile and "out.Espce_hex" the time
#  evolution of the total energy.
#
###############################################################################

# energy flux into the reservoir
 variable F         	equal 0.075

# timestep
 variable dt             equal 2.0

# simulation time for the production run (1 ns)
 variable tprod      	equal 5000

# total number of timesteps
 variable Nprod      	equal floor(${tprod}/${dt})
 variable Nprod      	equal floor(5000/${dt})
 variable Nprod      	equal floor(5000/2)

# parameters for the SPC/E model
 variable epsOO       	equal 0.15535
 variable sigOO       	equal 3.166
 variable theta       	equal 109.47

# long-range and short-range cutoffs, respectively
 variable cutC        	equal (xhi-xlo)/2.
 variable cutLJ  	equal 11

# specification of units, spatial dimensions, boundary conditions and atom-style
 units        real
 dimension    3
 boundary     p p p
 atom_style   full
 read_data    "data.spce"
  orthogonal box = (-12.6314 -12.6314 -25.2628) to (12.6314 12.6314 25.2628)
  1 by 1 by 1 MPI processor grid
  reading atoms ...
  3072 atoms
  reading velocities ...
  3072 velocities
  scanning bonds ...
  2 = max bonds/atom
  scanning angles ...
  1 = max angles/atom
  reading bonds ...
  2048 bonds
  reading angles ...
  1024 angles
  2 = max # of 1-2 neighbors
  1 = max # of 1-3 neighbors
  1 = max # of 1-4 neighbors
  2 = max # of special neighbors

# group atoms to molecules
 group    O type 2
1024 atoms in group O
 group    H type 1
2048 atoms in group H
 group    water type 1 2
3072 atoms in group water

# define the pair style with long-range Coulomb interaction
# and short-range LJ interaction
 pair_style    	lj/cut/coul/long ${cutLJ} ${cutC}
 pair_style    	lj/cut/coul/long 11 ${cutC}
 pair_style    	lj/cut/coul/long 11 12.6314
 pair_coeff    	2 2 ${epsOO} ${sigOO}
 pair_coeff    	2 2 0.15535 ${sigOO}
 pair_coeff    	2 2 0.15535 3.166
 pair_coeff    	1 2 0 0
 pair_coeff    	1 1 0 0

# use Ewald summation with a precision of 1.e-5
 kspace_style   ewald 1.e-5

# use harmonic bonds between sites of a molecules
# NOTE: this will not have any effects as we use RATTLE to keep the bonds fixed,
#       but it is recommended.
 bond_style    	harmonic
 angle_style   	harmonic
 bond_coeff    	1 1000.00 1.000
 angle_coeff   	1 100.0 ${theta}
 angle_coeff   	1 100.0 109.47

# use standard correction terms for the truncated tail of the LJ potential
 pair_modify tail yes

# increase neigbor skin because of the large timestep
 neighbor  4.5 bin

 variable    Nsamp    equal 10
 variable    Nrepeat  equal floor(${Nprod}/${Nsamp})
 variable    Nrepeat  equal floor(2500/${Nsamp})
 variable    Nrepeat  equal floor(2500/10)
 variable    Nevery   equal ${Nsamp}*${Nrepeat}
 variable    Nevery   equal 10*${Nrepeat}
 variable    Nevery   equal 10*250

# compute the centre of mass velocity of the box (vcmx, vcmy, vcmz)
 variable vcmx equal "vcm(all,x)"
 variable vcmy equal "vcm(all,y)"
 variable vcmz equal "vcm(all,z)"
 variable vcm2 equal round(100000000000000000000*(v_vcmx*v_vcmx+v_vcmy*v_vcmy+v_vcmz*v_vcmz))/100000000000000000000

# compute temperature, pressure, potential energy, kinetic energy and total energy
 compute   cT  all temp
 compute   cP  all pressure thermo_temp
 compute   cPe all pe
 compute   cKe all ke
 variable  vE  equal c_cKe+c_cPe

# specify the reservoir extents
 variable Lz          equal zhi-zlo
 variable delta       equal 4
 variable dz          equal ${Lz}/60
 variable dz          equal 50.5255/60
 variable zlo_Thi     equal -${Lz}/4.-${delta}/2.
 variable zlo_Thi     equal -50.5255/4.-${delta}/2.
 variable zlo_Thi     equal -50.5255/4.-4/2.
 variable zhi_Thi     equal ${zlo_Thi}+${delta}
 variable zhi_Thi     equal -14.631375+${delta}
 variable zhi_Thi     equal -14.631375+4
 variable zlo_Tlo     equal ${Lz}/4.-${delta}/2.
 variable zlo_Tlo     equal 50.5255/4.-${delta}/2.
 variable zlo_Tlo     equal 50.5255/4.-4/2.
 variable zhi_Tlo     equal ${zlo_Tlo}+${delta}
 variable zhi_Tlo     equal 10.631375+${delta}
 variable zhi_Tlo     equal 10.631375+4

# create regions of low and high temperature and apply thermostats
 region   Thi_region     block INF INF INF INF ${zlo_Thi} ${zhi_Thi}
 region   Thi_region     block INF INF INF INF -14.631375 ${zhi_Thi}
 region   Thi_region     block INF INF INF INF -14.631375 -10.631375
 region   Tlo_region     block INF INF INF INF ${zlo_Tlo} ${zhi_Tlo}
 region   Tlo_region     block INF INF INF INF 10.631375 ${zhi_Tlo}
 region   Tlo_region     block INF INF INF INF 10.631375 14.631375

# compute temperature of reservoirs using 3 degrees of freedom for every atom
 compute  cTlo   water temp/region Tlo_region
 compute  cThi   water temp/region Thi_region

# rescale temperature to correct for the constraint bonds (6 instead of 9 degrees of freedom per molecule)
 variable  Tlo_act    equal c_cTlo/2*3
 variable  Thi_act    equal c_cThi/2*3

# thermostat the reservoirs using the eHEX algorithm
# NOTE: add the keyword "hex" at the end of each of the two following lines
#       if you want to use the HEX algorithm.

 fix fHi all ehex 1  ${F}   region Thi_region com constrain hex
 fix fHi all ehex 1  0.075   region Thi_region com constrain hex
 fix fLo all ehex 1 -${F}   region Tlo_region com constrain hex
 fix fLo all ehex 1 -0.075   region Tlo_region com constrain hex

# use velocity Verlet integration
 fix fNVE all nve

# calculate the (kinetic) temperature from the kinetic
# energy per atom
# kB is Boltzmann's constant
# NOTE: For simplicity, we do not subtract the centre of mass
#       velocity of the individual slabs in this example script.
#       However, we did take this into account in the publication.
#       (The differences are negligible for our setup.)

 variable  kB  equal  0.001987204
 compute   ke  water  ke/atom
 variable  T   atom   c_ke/${kB}
 variable  T   atom   c_ke/0.001987204

# use RATTLE with a precision of 1.e-10
 fix    fRattle all rattle 1e-10 400 0 b 1 a 1
  0 = # of size 2 clusters
  0 = # of size 3 clusters
  0 = # of size 4 clusters
  1024 = # of frozen angles

# output the timestep, temperatures (average, cold reservoir, hot reservoir), energies (kinetic, potential and total),
# pressure and squared com velocity every 100 timesteps
 reset_timestep  0
 timestep        ${dt}
 timestep        2

 thermo_style    custom step temp v_Tlo_act v_Thi_act ke pe etotal press v_vcm2
 thermo          100

 compute         cchT  all  chunk/atom bin/1d z lower ${dz}
 compute         cchT  all  chunk/atom bin/1d z lower 0.842091666666667
 fix             fchT  all  ave/chunk  ${Nsamp} ${Nrepeat} ${Nevery} cchT v_T file out.Tspce_hex
 fix             fchT  all  ave/chunk  10 ${Nrepeat} ${Nevery} cchT v_T file out.Tspce_hex
 fix             fchT  all  ave/chunk  10 250 ${Nevery} cchT v_T file out.Tspce_hex
 fix             fchT  all  ave/chunk  10 250 2500 cchT v_T file out.Tspce_hex

 fix             fE    all  ave/time 10 500 5000 v_vE file out.Espce_hex
 run             ${Nprod}
 run             2500
Ewald initialization ...
WARNING: Using 12-bit tables for long-range coulomb (../kspace.cpp:321)
  G vector (1/distance) = 0.234029
  estimated absolute RMS force accuracy = 0.00363217
  estimated relative force accuracy = 1.09382e-05
  KSpace vectors: actual max1d max3d = 903 11 6083
                  kxmax kymax kzmax  = 6 6 11
Neighbor list info ...
  update every 1 steps, delay 10 steps, check yes
  max neighbors/atom: 2000, page size: 100000
  master list distance cutoff = 17.1314
  ghost atom cutoff = 17.1314
  binsize = 8.5657, bins = 3 3 6
  1 neighbor lists, perpetual/occasional/extra = 1 0 0
  (1) pair lj/cut/coul/long, perpetual
      attributes: half, newton on
      pair build: half/bin/newton
      stencil: half/bin/3d/newton
      bin: standard
Per MPI rank memory allocation (min/avg/max) = 64.75 | 64.75 | 64.75 Mbytes
Step Temp v_Tlo_act v_Thi_act KinEng PotEng TotEng Press v_vcm2 
       0    399.28553    345.31026    514.38426    2436.3278    -10062.57   -7626.2426    342.82044            0 
     100     402.1258     341.0178    505.14251    2453.6583   -10079.906   -7626.2482    562.68473            0 
     200     399.1629    355.34723    442.40719    2435.5795    -10061.71   -7626.1306    365.97516            0 
     300    389.05949     342.1697    433.67171    2373.9314   -10000.069   -7626.1378    539.79381            0 
     400    393.26669    329.38993    432.24938    2399.6025   -10025.416   -7625.8139    884.05159            0 
     500     411.3929    341.96514    492.10178    2510.2035   -10137.272    -7627.068    980.54273            0 
     600    404.53964    339.86947    444.41281    2468.3869   -10094.585   -7626.1977    507.92334            0 
     700    394.91398    304.59099    492.91811    2409.6538   -10035.438   -7625.7838     1234.969            0 
     800     384.8617     296.7144    446.44285    2348.3176   -9974.1731   -7625.8555    148.47014            0 
     900    406.23684    343.39917    503.50038    2478.7427   -10105.461   -7626.7184    931.32041            0 
    1000    392.06374    322.65376    452.65902    2392.2624   -10018.269   -7626.0061    227.87936            0 
    1100     395.9083    323.58245    456.89743    2415.7209   -10041.687   -7625.9661    409.46789            0 
    1200    389.25403    343.49024     423.9619    2375.1184   -10001.302   -7626.1836    720.54465            0 
    1300    398.13894    327.42877     445.0515    2429.3316   -10055.443   -7626.1114    654.24432            0 
    1400    396.92775     349.7709    432.16758    2421.9413   -10048.668    -7626.727    69.671447            0 
    1500    407.62928    337.09158    508.91756     2487.239   -10113.667   -7626.4282    1087.4417            0 
    1600    394.96604    338.45245    524.34908    2409.9715   -10036.228   -7626.2568    606.94174            0 
    1700    390.55034    315.62512    456.12758    2383.0281   -10009.523   -7626.4948    146.65021            0 
    1800    393.97346     342.7685    471.72663     2403.915     -10029.9   -7625.9846    1186.8858            0 
    1900    405.10157    362.83331    427.63246    2471.8156   -10098.503   -7626.6878    248.29302            0 
    2000    393.88038    353.13141     493.0104    2403.3471   -10029.584   -7626.2365    1290.6789            0 
    2100    402.47962    323.04699    467.45058    2455.8172   -10082.501   -7626.6837    532.28611            0 
    2200     399.3856    318.79409     507.0605    2436.9384   -10062.997   -7626.0587    122.75504            0 
    2300    417.36227    356.85539    464.96879     2546.627    -10173.89   -7627.2632   -175.82778            0 
    2400    398.23753    326.12612    454.86872    2429.9332    -10056.36   -7626.4273     502.0845            0 
    2500    407.51762    331.45841      497.221    2486.5577   -10113.731    -7627.173    312.82464            0 
Loop time of 222.712 on 1 procs for 2500 steps with 3072 atoms

Performance: 1.940 ns/day, 12.373 hours/ns, 11.225 timesteps/s
99.6% CPU use with 1 MPI tasks x 1 OpenMP threads

MPI task timing breakdown:
Section |  min time  |  avg time  |  max time  |%varavg| %total
---------------------------------------------------------------
Pair    | 144.47     | 144.47     | 144.47     |   0.0 | 64.87
Bond    | 0.005523   | 0.005523   | 0.005523   |   0.0 |  0.00
Kspace  | 64.204     | 64.204     | 64.204     |   0.0 | 28.83
Neigh   | 9.7254     | 9.7254     | 9.7254     |   0.0 |  4.37
Comm    | 0.6999     | 0.6999     | 0.6999     |   0.0 |  0.31
Output  | 0.007395   | 0.007395   | 0.007395   |   0.0 |  0.00
Modify  | 3.4537     | 3.4537     | 3.4537     |   0.0 |  1.55
Other   |            | 0.1456     |            |       |  0.07

Nlocal:    3072 ave 3072 max 3072 min
Histogram: 1 0 0 0 0 0 0 0 0 0
Nghost:    25592 ave 25592 max 25592 min
Histogram: 1 0 0 0 0 0 0 0 0 0
Neighs:    3.08178e+06 ave 3.08178e+06 max 3.08178e+06 min
Histogram: 1 0 0 0 0 0 0 0 0 0

Total # of neighbors = 3081782
Ave neighs/atom = 1003.18
Ave special neighs/atom = 2
Neighbor list builds = 72
Dangerous builds = 0

Total wall time: 0:03:42
