LAMMPS (6 Jul 2017)
  using 1 OpenMP thread(s) per MPI task
###############################################################################
#
#
#  This input script is a modified version of the example script spce_ehex.lmp
#  which is part of the supplementary (open access) material of the paper
#
#  P. Wirnsberger, D. Frenkel and C. Dellago,
#  "An enhanced version of the heat exchange algorithm with excellent energy
#  conservation properties", J. Chem. Phys. 143, 124104 (2015).
#
#  The full article is available on arXiv: http://arxiv.org/pdf/1507.07081.
#
#
#  Description:
#  ------------
#
#  This file is a LAMMPS input script for carrying out a NEMD simulation of
#  SPC/E water using the eHEX/a algorithm. The run produces two files:
#  "out.Tspce_ehex" contains the temperature profile and "out.Espce_ehex" the time
#  evolution of the total energy.
#
###############################################################################

# energy flux into the reservoir
 variable F         	equal 0.075

# timestep
 variable dt             equal 2.0

# simulation time for the production run (1 ns)
 variable tprod      	equal 5000

# total number of timesteps
 variable Nprod      	equal floor(${tprod}/${dt})
 variable Nprod      	equal floor(5000/${dt})
 variable Nprod      	equal floor(5000/2)

# parameters for the SPC/E model
 variable epsOO       	equal 0.15535
 variable sigOO       	equal 3.166
 variable theta       	equal 109.47

# long-range and short-range cutoffs, respectively
 variable cutC        	equal (xhi-xlo)/2.
 variable cutLJ  	equal 11

# specification of units, spatial dimensions, boundary conditions and atom-style
 units        real
 dimension    3
 boundary     p p p
 atom_style   full
 read_data    "data.spce"
  orthogonal box = (-12.6314 -12.6314 -25.2628) to (12.6314 12.6314 25.2628)
  1 by 2 by 2 MPI processor grid
  reading atoms ...
  3072 atoms
  reading velocities ...
  3072 velocities
  scanning bonds ...
  2 = max bonds/atom
  scanning angles ...
  1 = max angles/atom
  reading bonds ...
  2048 bonds
  reading angles ...
  1024 angles
  2 = max # of 1-2 neighbors
  1 = max # of 1-3 neighbors
  1 = max # of 1-4 neighbors
  2 = max # of special neighbors

# group atoms to molecules
 group    O type 2
1024 atoms in group O
 group    H type 1
2048 atoms in group H
 group    water type 1 2
3072 atoms in group water

# define the pair style with long-range Coulomb interaction
# and short-range LJ interaction
 pair_style    	lj/cut/coul/long ${cutLJ} ${cutC}
 pair_style    	lj/cut/coul/long 11 ${cutC}
 pair_style    	lj/cut/coul/long 11 12.6314
 pair_coeff    	2 2 ${epsOO} ${sigOO}
 pair_coeff    	2 2 0.15535 ${sigOO}
 pair_coeff    	2 2 0.15535 3.166
 pair_coeff    	1 2 0 0
 pair_coeff    	1 1 0 0

# use Ewald summation with a precision of 1.e-5
 kspace_style   ewald 1.e-5

# use harmonic bonds between sites of a molecules
# NOTE: this will not have any effects as we use RATTLE to keep the bonds fixed,
#       but it is recommended.
 bond_style    	harmonic
 angle_style   	harmonic
 bond_coeff    	1 1000.00 1.000
 angle_coeff   	1 100.0 ${theta}
 angle_coeff   	1 100.0 109.47

# increase neigbor skin because of the large timestep
 neighbor  4.5 bin

# use standard correction terms for the truncated tail of the LJ potential
 pair_modify tail yes

 variable    Nsamp    equal 10
 variable    Nrepeat  equal floor(${Nprod}/${Nsamp})
 variable    Nrepeat  equal floor(2500/${Nsamp})
 variable    Nrepeat  equal floor(2500/10)
 variable    Nevery   equal ${Nsamp}*${Nrepeat}
 variable    Nevery   equal 10*${Nrepeat}
 variable    Nevery   equal 10*250

# compute the centre of mass velocity of the box (vcmx, vcmy, vcmz)
 variable vcmx equal "vcm(all,x)"
 variable vcmy equal "vcm(all,y)"
 variable vcmz equal "vcm(all,z)"
 variable vcm2 equal round(100000000000000000000*(v_vcmx*v_vcmx+v_vcmy*v_vcmy+v_vcmz*v_vcmz))/100000000000000000000

# compute temperature, pressure, potential energy, kinetic energy and total energy
 compute   cT  all temp
 compute   cP  all pressure thermo_temp
 compute   cPe all pe
 compute   cKe all ke
 variable  vE  equal c_cKe+c_cPe

# specify the reservoir extents
 variable Lz          equal zhi-zlo
 variable delta       equal 4
 variable dz          equal ${Lz}/60
 variable dz          equal 50.5255/60
 variable zlo_Thi     equal -${Lz}/4.-${delta}/2.
 variable zlo_Thi     equal -50.5255/4.-${delta}/2.
 variable zlo_Thi     equal -50.5255/4.-4/2.
 variable zhi_Thi     equal ${zlo_Thi}+${delta}
 variable zhi_Thi     equal -14.631375+${delta}
 variable zhi_Thi     equal -14.631375+4
 variable zlo_Tlo     equal ${Lz}/4.-${delta}/2.
 variable zlo_Tlo     equal 50.5255/4.-${delta}/2.
 variable zlo_Tlo     equal 50.5255/4.-4/2.
 variable zhi_Tlo     equal ${zlo_Tlo}+${delta}
 variable zhi_Tlo     equal 10.631375+${delta}
 variable zhi_Tlo     equal 10.631375+4

# create regions of low and high temperature and apply thermostats
 region   Thi_region     block INF INF INF INF ${zlo_Thi} ${zhi_Thi}
 region   Thi_region     block INF INF INF INF -14.631375 ${zhi_Thi}
 region   Thi_region     block INF INF INF INF -14.631375 -10.631375
 region   Tlo_region     block INF INF INF INF ${zlo_Tlo} ${zhi_Tlo}
 region   Tlo_region     block INF INF INF INF 10.631375 ${zhi_Tlo}
 region   Tlo_region     block INF INF INF INF 10.631375 14.631375

# compute temperature of reservoirs using 3 degrees of freedom for every atom
 compute  cTlo   water temp/region Tlo_region
 compute  cThi   water temp/region Thi_region

# rescale temperature to correct for the constraint bonds (6 instead of 9 degrees of freedom per molecule)
 variable  Tlo_act    equal c_cTlo/2*3
 variable  Thi_act    equal c_cThi/2*3

# thermostat the reservoirs using the eHEX algorithm
# NOTE: add the keyword "hex" at the end of each of the two following lines
#       if you want to use the HEX algorithm.

 fix fHi all ehex 1  ${F}   region Thi_region com constrain
 fix fHi all ehex 1  0.075   region Thi_region com constrain
 fix fLo all ehex 1 -${F}   region Tlo_region com constrain
 fix fLo all ehex 1 -0.075   region Tlo_region com constrain

# use velocity Verlet integration
 fix fNVE all nve

# calculate the (kinetic) temperature from the kinetic
# energy per atom
# kB is Boltzmann's constant
# NOTE: For simplicity, we do not subtract the centre of mass
#       velocity of the individual slabs in this example script.
#       However, we did take this into account in the publication.
#       (The differences are negligible for our setup.)

 variable  kB  equal  0.001987204
 compute   ke  water  ke/atom
 variable  T   atom   c_ke/${kB}
 variable  T   atom   c_ke/0.001987204

# use RATTLE with a precision of 1.e-10
 fix    fRattle all rattle 1e-10 400 0 b 1 a 1
  0 = # of size 2 clusters
  0 = # of size 3 clusters
  0 = # of size 4 clusters
  1024 = # of frozen angles

# output the timestep, temperatures (average, cold reservoir, hot reservoir), energies (kinetic, potential and total),
# pressure and squared com velocity every 100 timesteps
 reset_timestep  0
 timestep        ${dt}
 timestep        2

 thermo_style    custom step temp v_Tlo_act v_Thi_act ke pe etotal press v_vcm2
 thermo          100

 compute         cchT  all  chunk/atom bin/1d z lower ${dz}
 compute         cchT  all  chunk/atom bin/1d z lower 0.842091666666667
 fix             fchT  all  ave/chunk  ${Nsamp} ${Nrepeat} ${Nevery} cchT v_T file out.Tspce_ehex
 fix             fchT  all  ave/chunk  10 ${Nrepeat} ${Nevery} cchT v_T file out.Tspce_ehex
 fix             fchT  all  ave/chunk  10 250 ${Nevery} cchT v_T file out.Tspce_ehex
 fix             fchT  all  ave/chunk  10 250 2500 cchT v_T file out.Tspce_ehex

 fix             fE    all  ave/time 10 500 5000 v_vE file out.Espce_ehex
 run             ${Nprod}
 run             2500
Ewald initialization ...
WARNING: Using 12-bit tables for long-range coulomb (../kspace.cpp:321)
  G vector (1/distance) = 0.234029
  estimated absolute RMS force accuracy = 0.00363217
  estimated relative force accuracy = 1.09382e-05
  KSpace vectors: actual max1d max3d = 903 11 6083
                  kxmax kymax kzmax  = 6 6 11
Neighbor list info ...
  update every 1 steps, delay 10 steps, check yes
  max neighbors/atom: 2000, page size: 100000
  master list distance cutoff = 17.1314
  ghost atom cutoff = 17.1314
  binsize = 8.5657, bins = 3 3 6
  1 neighbor lists, perpetual/occasional/extra = 1 0 0
  (1) pair lj/cut/coul/long, perpetual
      attributes: half, newton on
      pair build: half/bin/newton
      stencil: half/bin/3d/newton
      bin: standard
Per MPI rank memory allocation (min/avg/max) = 30.04 | 30.23 | 30.42 Mbytes
Step Temp v_Tlo_act v_Thi_act KinEng PotEng TotEng Press v_vcm2 
       0    399.28553    345.31026    514.38426    2436.3278    -10062.57   -7626.2426    342.82044            0 
     100    402.11915    341.04635    504.97441    2453.6177   -10079.853   -7626.2348    562.90096            0 
     200    399.25227    355.36095     442.9556    2436.1248   -10062.257   -7626.1324    361.11864            0 
     300    388.11971    340.43982     486.9712    2368.1971   -9994.4106   -7626.2135    799.87616            0 
     400    396.28341    326.57799    494.11372    2418.0097   -10044.666   -7626.6567    905.75727            0 
     500    400.50229    348.77319    472.68936    2443.7521   -10070.221   -7626.4685    418.59025            0 
     600    397.58889    321.45369    478.62202    2425.9753   -10052.164   -7626.1888    724.60851            0 
     700    406.98541     314.9533    473.42686    2483.3103   -10109.779   -7626.4683    1079.4314            0 
     800    410.27879    355.35404    446.64402    2503.4055   -10129.923   -7626.5177   -57.714652            0 
     900    398.38293     367.4114     466.4031    2430.8203   -10056.826   -7626.0052    673.99034            0 
    1000    399.70435    332.82237    460.98535    2438.8833   -10064.917   -7626.0339    278.65537            0 
    1100     397.0847    304.10951    489.87979    2422.8989    -10048.45   -7625.5509    1059.7417            0 
    1200    394.15776    325.51404    469.70625    2405.0396   -10031.054   -7626.0144   -220.03738            0 
    1300     394.2085    350.22192    470.67336    2405.3492   -10031.427    -7626.078    199.51086            0 
    1400     402.3309    332.63507    467.91033    2454.9098   -10081.419   -7626.5096    1080.2711            0 
    1500    402.91455    335.17719    516.60634     2458.471   -10084.652   -7626.1811    697.98951            0 
    1600    397.06601    330.23269    473.44796    2422.7849   -10048.979   -7626.1939    1222.4688            0 
    1700    397.67959    335.06887    469.09753    2426.5288   -10052.414   -7625.8855    89.039247            0 
    1800    410.30142    373.10944    452.43311    2503.5436   -10129.933   -7626.3896     547.9007            0 
    1900    396.35221    348.00562    441.63693    2418.4295   -10044.591   -7626.1612    77.788181            0 
    2000    397.89284    363.25954    430.32856      2427.83   -10054.265   -7626.4348    194.69464            0 
    2100    406.10567    346.16927     483.5584    2477.9424   -10104.789   -7626.8463    703.62315            0 
    2200    410.44626    369.93208    429.08463    2504.4274    -10131.59   -7627.1631    749.03986            0 
    2300     405.4544    361.47878    443.61265    2473.9685   -10100.199   -7626.2307    557.52206            0 
    2400     395.5153    341.40353    442.82856    2413.3229   -10038.917   -7625.5939    114.78514            0 
    2500    400.07038    361.56131    422.36801    2441.1167   -10067.963   -7626.8464   -30.528693            0 
Loop time of 73.561 on 4 procs for 2500 steps with 3072 atoms

Performance: 5.873 ns/day, 4.087 hours/ns, 33.985 timesteps/s
98.9% CPU use with 4 MPI tasks x 1 OpenMP threads

MPI task timing breakdown:
Section |  min time  |  avg time  |  max time  |%varavg| %total
---------------------------------------------------------------
Pair    | 36.458     | 40.402     | 43.896     |  49.2 | 54.92
Bond    | 0.0025856  | 0.0036782  | 0.004699   |   1.2 |  0.01
Kspace  | 18.128     | 20.857     | 23.816     |  56.9 | 28.35
Neigh   | 2.5634     | 2.5665     | 2.5696     |   0.2 |  3.49
Comm    | 1.9282     | 2.6639     | 3.616      |  37.2 |  3.62
Output  | 0.0047879  | 0.0048528  | 0.0050337  |   0.2 |  0.01
Modify  | 6.8465     | 6.8566     | 6.863      |   0.2 |  9.32
Other   |            | 0.2062     |            |       |  0.28

Nlocal:    768 ave 793 max 746 min
Histogram: 1 0 1 0 0 1 0 0 0 1
Nghost:    15124.5 ave 15266 max 14975 min
Histogram: 1 0 1 0 0 0 0 0 1 1
Neighs:    770383 ave 829144 max 703894 min
Histogram: 1 0 1 0 0 0 0 0 0 2

Total # of neighbors = 3081531
Ave neighs/atom = 1003.1
Ave special neighs/atom = 2
Neighbor list builds = 75
Dangerous builds = 0

Total wall time: 0:01:13
