LAMMPS (30 Jun 2020)
  using 1 OpenMP thread(s) per MPI task
variable number	equal 1
variable ofreq	equal 100
variable efreq	equal 100
variable T      equal 0.1

units lj

dimension 3

newton off

boundary  p p p

atom_style hybrid bond ellipsoid
WARNING: Atom_style hybrid defines both pertype and peratom masses - both must be set, only peratom masses will be used (src/atom_vec_hybrid.cpp:156)
atom_modify sort 0 1.0

# Pair interactions require lists of neighbours to be calculated
neighbor 1.0 bin
neigh_modify every 1 delay 0 check yes
special_bonds lj 0 1 1 coul 1 1 1

read_data data.duplex3
  orthogonal box = (-20 -20 -20) to (20 20 20)
  1 by 2 by 2 MPI processor grid
  reading atoms ...
  10 atoms
  reading velocities ...
  10 velocities
  10 ellipsoids
  scanning bonds ...
  2 = max bonds/atom
  reading bonds ...
  8 bonds
  2 = max # of 1-2 neighbors
  2 = max # of special neighbors
  special bonds CPU = 0.001 seconds
  read_data CPU = 0.004 seconds

mass * 1.0

group all type 1 4
10 atoms in group all

# oxDNA2 bond interactions - FENE backbone
bond_style oxdna2/fene
bond_coeff * 2.0 0.25 0.7564

# oxDNA2 pair interactions
pair_style hybrid/overlay oxdna2/excv oxdna2/stk oxdna2/hbond oxdna2/xstk oxdna2/coaxstk oxdna2/dh
pair_coeff * * oxdna2/excv    2.0 0.7 0.675 2.0 0.515 0.5 2.0 0.33 0.32
pair_coeff * * oxdna2/stk     seqdep ${T} 1.3523 2.6717 6.0 0.4 0.9 0.32 0.75 1.3 0 0.8 0.9 0 0.95 0.9 0 0.95 2.0 0.65 2.0 0.65
pair_coeff * * oxdna2/stk     seqdep 0.1 1.3523 2.6717 6.0 0.4 0.9 0.32 0.75 1.3 0 0.8 0.9 0 0.95 0.9 0 0.95 2.0 0.65 2.0 0.65
pair_coeff * * oxdna2/hbond   seqdep 0.0 8.0 0.4 0.75 0.34 0.7 1.5 0 0.7 1.5 0 0.7 1.5 0 0.7 0.46 3.141592653589793 0.7 4.0 1.5707963267948966 0.45 4.0 1.5707963267948966 0.45
pair_coeff 1 4 oxdna2/hbond   seqdep 1.0678 8.0 0.4 0.75 0.34 0.7 1.5 0 0.7 1.5 0 0.7 1.5 0 0.7 0.46 3.141592653589793 0.7 4.0 1.5707963267948966 0.45 4.0 1.5707963267948966 0.45
pair_coeff 2 3 oxdna2/hbond   seqdep 1.0678 8.0 0.4 0.75 0.34 0.7 1.5 0 0.7 1.5 0 0.7 1.5 0 0.7 0.46 3.141592653589793 0.7 4.0 1.5707963267948966 0.45 4.0 1.5707963267948966 0.45
pair_coeff * * oxdna2/xstk    47.5 0.575 0.675 0.495 0.655 2.25 0.791592653589793 0.58 1.7 1.0 0.68 1.7 1.0 0.68 1.5 0 0.65 1.7 0.875 0.68 1.7 0.875 0.68
pair_coeff * * oxdna2/coaxstk 58.5 0.4 0.6 0.22 0.58 2.0 2.891592653589793 0.65 1.3 0 0.8 0.9 0 0.95 0.9 0 0.95 40.0 3.116592653589793
pair_coeff * * oxdna2/dh      ${T} 1.0 0.815
pair_coeff * * oxdna2/dh      0.1 1.0 0.815

# NVE ensemble
fix 1 all nve/dot

timestep 1e-5

compute erot all erotate/asphere
compute ekin all ke
compute epot all pe
variable erot equal c_erot
variable ekin equal c_ekin
variable epot equal c_epot
variable etot equal c_erot+c_ekin+c_epot
thermo_style custom step temp press v_ekin v_erot v_epot v_etot
thermo 100
run 1000
Neighbor list info ...
  update every 1 steps, delay 0 steps, check yes
  max neighbors/atom: 2000, page size: 100000
  master list distance cutoff = 2.6274048
  ghost atom cutoff = 2.6274048
  binsize = 1.3137024, bins = 31 31 31
  6 neighbor lists, perpetual/occasional/extra = 6 0 0
  (1) pair oxdna2/excv, perpetual
      attributes: half, newton off
      pair build: half/bin/newtoff
      stencil: half/bin/3d/newtoff
      bin: standard
  (2) pair oxdna2/stk, perpetual, copy from (1)
      attributes: half, newton off
      pair build: copy
      stencil: none
      bin: none
  (3) pair oxdna2/hbond, perpetual, copy from (1)
      attributes: half, newton off
      pair build: copy
      stencil: none
      bin: none
  (4) pair oxdna2/xstk, perpetual, copy from (1)
      attributes: half, newton off
      pair build: copy
      stencil: none
      bin: none
  (5) pair oxdna2/coaxstk, perpetual, copy from (1)
      attributes: half, newton off
      pair build: copy
      stencil: none
      bin: none
  (6) pair oxdna2/dh, perpetual, copy from (1)
      attributes: half, newton off
      pair build: copy
      stencil: none
      bin: none
Per MPI rank memory allocation (min/avg/max) = 7.778 | 7.835 | 7.893 Mbytes
Step Temp Press v_ekin v_erot v_epot v_etot 
       0            0 3.1370518e-06            0            0   -14.624904   -14.624904 
     100 1.6460624e-07 3.1372875e-06 2.2221842e-06 1.1720275e-06   -14.624907   -14.624904 
     200 6.5842004e-07 3.1379946e-06 8.8886705e-06 4.6880952e-06   -14.624917   -14.624904 
     300 1.4814267e-06 3.139173e-06 1.999926e-05 1.0548159e-05   -14.624934   -14.624904 
     400 2.6336016e-06 3.1408227e-06 3.5553622e-05 1.8752147e-05   -14.624958   -14.624904 
     500 4.1149104e-06 3.1429437e-06 5.5551291e-05 2.9299955e-05   -14.624989   -14.624904 
     600 5.925309e-06 3.1455359e-06 7.9991671e-05 4.2191452e-05   -14.625026   -14.624904 
     700 8.0647433e-06 3.1485993e-06 0.00010887403 5.7426477e-05    -14.62507   -14.624904 
     800 1.0533149e-05 3.1521338e-06 0.00014219752 7.500484e-05   -14.625121   -14.624904 
     900 1.3330454e-05 3.1561393e-06 0.00017996113 9.4926322e-05   -14.625179   -14.624904 
    1000 1.6456573e-05 3.1606156e-06 0.00022216374 0.00011719067   -14.625243   -14.624904 
Loop time of 0.0643418 on 4 procs for 1000 steps with 10 atoms

Performance: 13428.281 tau/day, 15541.992 timesteps/s
42.2% CPU use with 4 MPI tasks x 1 OpenMP threads

MPI task timing breakdown:
Section |  min time  |  avg time  |  max time  |%varavg| %total
---------------------------------------------------------------
Pair    | 0.00072496 | 0.0061406  | 0.01089    |   5.3 |  9.54
Bond    | 8.3094e-05 | 0.00026787 | 0.00039995 |   0.0 |  0.42
Neigh   | 0          | 0          | 0          |   0.0 |  0.00
Comm    | 0.025736   | 0.028492   | 0.032795   |   1.7 | 44.28
Output  | 0.00097319 | 0.0013574  | 0.0023359  |   1.5 |  2.11
Modify  | 0.00012096 | 0.00047642 | 0.00082338 |   0.0 |  0.74
Other   |            | 0.02761    |            |       | 42.91

Nlocal:    2.5 ave 5.0 max 0.0 min
Histogram: 1 0 1 0 0 0 0 0 1 1
Nghost:    7.5 ave 10.0 max 5.0 min
Histogram: 1 0 1 0 0 0 0 0 1 1
Neighs:    18.5 ave 35.0 max 0.0 min
Histogram: 1 0 1 0 0 0 0 0 1 1

Total # of neighbors = 74
Ave neighs/atom = 7.4
Ave special neighs/atom = 1.6
Neighbor list builds = 0
Dangerous builds = 0

Total wall time: 0:00:00
