LAMMPS (4 Jan 2019)
# 2d SRD test: big + small particles

units		lj
atom_style	sphere
atom_modify	first big
dimension	2

# create big particles with sigma 1.0

lattice		sq 0.4
Lattice spacing in x,y,z = 1.58114 1.58114 1.58114
region		box block 0 10 0 10 -0.5 0.5
create_box	2 box
Created orthogonal box = (0 0 -0.790569) to (15.8114 15.8114 0.790569)
  4 by 2 by 1 MPI processor grid
create_atoms	1 region box
Created 100 atoms
  Time spent = 0.000970136 secs
set		type 1 mass 1.0
  100 settings made for mass
set		type 1 diameter 1.0
  100 settings made for diameter

group		big type 1
100 atoms in group big
velocity	big create 1.44 87287 loop geom

# equilibrate big particles

pair_style	lj/cut 2.5
pair_coeff	1 1 1.0 1.0
pair_coeff	2 2 0.0 1.0 0.0
pair_coeff	1 2 0.0 1.0 0.0

neighbor	0.3 bin
neigh_modify	delay 0 every 1 check yes

fix		1 big nve
fix		2 all enforce2d

run		1000
Neighbor list info ...
  update every 1 steps, delay 0 steps, check yes
  max neighbors/atom: 2000, page size: 100000
  master list distance cutoff = 2.8
  ghost atom cutoff = 2.8
  binsize = 1.4, bins = 12 12 2
  1 neighbor lists, perpetual/occasional/extra = 1 0 0
  (1) pair lj/cut, perpetual
      attributes: half, newton on
      pair build: half/bin/atomonly/newton
      stencil: half/bin/2d/newton
      bin: standard
Per MPI rank memory allocation (min/avg/max) = 4.171 | 4.171 | 4.171 Mbytes
Step Temp E_pair E_mol TotEng Press 
       0         1.44     -0.54272            0      0.88288    -0.041088 
    1000    1.8791467  -0.97185784            0    0.8884974   0.61487657 
Loop time of 0.0220607 on 8 procs for 1000 steps with 100 atoms

Performance: 19582337.302 tau/day, 45329.484 timesteps/s
95.4% CPU use with 8 MPI tasks x no OpenMP threads

MPI task timing breakdown:
Section |  min time  |  avg time  |  max time  |%varavg| %total
---------------------------------------------------------------
Pair    | 0.00075912 | 0.0010065  | 0.0012234  |   0.5 |  4.56
Neigh   | 0.00043994 | 0.00052651 | 0.00058248 |   0.0 |  2.39
Comm    | 0.015515   | 0.015718   | 0.01593    |   0.1 | 71.25
Output  | 2.1937e-05 | 2.2872e-05 | 2.5001e-05 |   0.0 |  0.10
Modify  | 0.00049828 | 0.00058216 | 0.00061933 |   0.0 |  2.64
Other   |            | 0.004205   |            |       | 19.06

Nlocal:    12.5 ave 14 max 10 min
Histogram: 1 0 1 0 0 2 0 1 0 3
Nghost:    38.375 ave 41 max 35 min
Histogram: 1 1 0 0 0 2 2 0 0 2
Neighs:    57.375 ave 69 max 38 min
Histogram: 1 0 0 0 1 2 0 2 0 2

Total # of neighbors = 459
Ave neighs/atom = 4.59
Neighbor list builds = 129
Dangerous builds = 0

unfix		1
unfix		2

# add small particles as hi density lattice

lattice		sq 0.4
Lattice spacing in x,y,z = 1.58114 1.58114 1.58114
region		plane block 0 10 0 10 -0.001 0.001
lattice		sq 85.0
Lattice spacing in x,y,z = 0.108465 0.108465 0.108465
create_atoms	2 region plane
Created 21316 atoms
  Time spent = 0.001629 secs
set		type 2 mass 0.01
  21316 settings made for mass
set		type 2 diameter 0.0
  21316 settings made for diameter

group		small type 2
21316 atoms in group small

velocity	small create 1.0 593849 loop geom

# delete overlaps
# must set 1-2 cutoff to non-zero value

pair_style	lj/cut 2.5
pair_coeff	1 1 1.0 1.0
pair_coeff	2 2 0.0 1.0 0.0
pair_coeff	1 2 0.0 1.0 0.5

delete_atoms	overlap 0.5 small big
Neighbor list info ...
  update every 1 steps, delay 0 steps, check yes
  max neighbors/atom: 2000, page size: 100000
  master list distance cutoff = 2.8
  ghost atom cutoff = 2.8
  binsize = 1.4, bins = 12 12 2
  2 neighbor lists, perpetual/occasional/extra = 1 1 0
  (1) command delete_atoms, occasional
      attributes: full, newton on
      pair build: full/bin/atomonly
      stencil: full/bin/2d
      bin: standard
  (2) pair lj/cut, perpetual
      attributes: half, newton on
      pair build: half/bin/atomonly/newton
      stencil: half/bin/2d/newton
      bin: standard
WARNING: Delete_atoms cutoff > minimum neighbor cutoff (../delete_atoms.cpp:305)
Deleted 6700 atoms, new total = 14716

# SRD run

reset_timestep	0

neighbor	0.3 bin
neigh_modify	delay 0 every 1 check yes

comm_modify	mode multi group big vel yes
neigh_modify	include big

# no pairwise interactions with small particles

pair_style	lj/cut 2.5
pair_coeff	1 1 1.0 1.0
pair_coeff	2 2 0.0 1.0 0.0
pair_coeff	1 2 0.0 1.0 0.0

# use fix SRD to push small particles out from inside big ones

timestep	0.001

fix		1 big nve
fix	        2 small srd 20 big 1.0 0.25 49894 		  radius 0.88 search 0.2 collision slip
fix		3 all enforce2d

# diagnostics

compute		tbig big temp
variable	pebig equal pe*atoms/count(big)
variable	ebig equal etotal*atoms/count(big)
thermo_style	custom step temp f_2[7] etotal v_pebig v_ebig press 		f_2[1] f_2[2] f_2[3] f_2[4] f_2[5] 		f_2[6] f_2[8] f_2[9] f_2[10]

thermo_modify	temp tbig
WARNING: Temperature for thermo pressure is not for group all (../thermo.cpp:488)
thermo		100

#dump		1 all atom 250 dump.srd.mixture

#dump		2 all image 250 image.*.jpg type type zoom 1.6
#dump_modify	2 pad 4 adiam 1 1 adiam 2 0.2

#dump		3 all movie 250 movie.mpg type type zoom 1.6
#dump_modify	3 pad 4 adiam 1 1 adiam 2 0.2

run		5000
SRD info:
  SRD/big particles = 14616 100
  big particle diameter max/min = 0.88 0.88
  SRD temperature & lamda = 1 0.2
  SRD max distance & max velocity = 0.8 40
  SRD grid counts: 63 63 1
  SRD grid size: request, actual (xyz) = 0.25, 0.250974 0.250974 1.58114
  SRD per actual grid cell = 4.86648
  SRD viscosity = 0.463448
  big/SRD mass density ratio = 2.12808
WARNING: Fix srd grid size > 1/4 of big particle diameter (../fix_srd.cpp:2888)
  # of rescaled SRD velocities = 0
  ave/max small velocity = 13.2944 24.262
  ave/max big velocity = 1.69284 5.10989
Neighbor list info ...
  update every 1 steps, delay 0 steps, check yes
  max neighbors/atom: 2000, page size: 100000
  master list distance cutoff = 2.8
  ghost atom cutoff = 2.8
  binsize = 1.4, bins = 12 12 2
  1 neighbor lists, perpetual/occasional/extra = 1 0 0
  (1) pair lj/cut, perpetual
      attributes: half, newton on
      pair build: half/bin/atomonly/newton
      stencil: half/bin/2d/newton
      bin: standard
Per MPI rank memory allocation (min/avg/max) = 5.319 | 5.328 | 5.336 Mbytes
Step Temp f_2[7] TotEng v_pebig v_ebig Press f_2[1] f_2[2] f_2[3] f_2[4] f_2[5] f_2[6] f_2[8] f_2[9] f_2[10] 
       0    1.8791467            0 0.0060376284  -0.97185784    0.8884974   0.61487657            0            0            0            0            0            0            0            0            0 
     100    1.2064605         3969 0.0016169466  -0.95644599   0.23794986   0.63083791         7459           83           83            0           19        33000         3018     1.013812            0 
     200    1.1778894         3969 0.0011886637  -0.99118675   0.17492375   0.51148108         7490           88           88            0           46        33000         3002    1.0128727            0 
     300   0.90986426         3969 -0.00088484661   -1.0309796  -0.13021403   0.13867472         7575           75           75            0           79        33000         2999    1.0127133            0 
     400    1.0728423         3969 0.00050616461  -0.98762665  0.074487184   0.30751525         7483           91           91            0          104        33000         3008   0.99915101            0 
     500    1.0781187         3969 0.0005820522  -0.98168272  0.085654802   0.43739126         7576           81           81            0          138        33000         3004    1.0056987            0 
     600    1.2367834         3969 0.0014855317   -1.0058047   0.21861085   0.36752685         7538           80           80            0          173        33000         2985    1.0077795            0 
     700    1.0863109         3969 0.00080389745  -0.95714622   0.11830155   0.46137161         7460           85           85            0          197        33000         2997     1.030367            0 
     800    1.1077917         3969 0.00054985116   -1.0157976  0.080916097   0.30489572         7542           81           81            0          231        33000         2992    1.0188155            0 
     900   0.88884042         3969 -0.00087484569   -1.0086943  -0.12874229   0.40258803         7500           62           62            0          259        33000         2990    1.0261248            0 
    1000    1.0403397         3969 -0.00025930698   -1.0680959 -0.038159615     0.235858         7437           84           84            0          296        33000         2997    1.0249332            0 
    1100    1.0307701         3969 -4.0157728e-05    -1.026372 -0.0059096113   0.50176343         7449           82           82            0          337        33000         3000    1.0115449            0 
    1200     1.049233         3969 -0.00018404872   -1.0658253 -0.027084609   0.46148791         7549          100          100            0          372        33000         3022    1.0224668            0 
    1300    1.1663075         3969 0.00070908928   -1.0502948   0.10434958    0.5263365         7604           96           96            0          403        33000         3001    1.0154848            0 
    1400    1.0980669         3969 0.00031798861    -1.040291  0.046795204   0.46792356         7533           83           83            0          435        33000         3011    1.0364154            0 
    1500     1.043652         3969 -0.00037279154   -1.0880754 -0.054860003   0.17605792         7409           88           88            0          475        33000         2993    1.0244648            0 
    1600    1.0517926         3969 -3.2967349e-05   -1.0461261 -0.0048514751   0.42650395         7529          102          102            0          510        33000         2992    1.0202223            0 
    1700     1.119726         3969 0.00012576952   -1.0900205  0.018508242   0.36468504         7582           87           87            0          552        33000         2996    1.0091919            0 
    1800   0.97058659         3969 -0.00078907356   -1.0770008  -0.11612006   0.35862333         7537           77           77            0          581        33000         3006    1.0311781            0 
    1900   0.94306734         3969 -0.001039021    -1.086539  -0.15290232   0.17336742         7530           87           87            0          613        33000         3006     1.021191            0 
    2000   0.96112486         3969 -0.00081060119   -1.0708017  -0.11928807  0.058374701         7538           85           85            0          651        33000         3005    1.0255218            0 
    2100    1.1281314         3969 0.00010251148   -1.1017645   0.01508559 -0.017880171         7665           78           78            0          689        33000         3029     1.022726            0 
    2200    1.0195194         3969 -0.00011047899   -1.0255823 -0.016258087   0.27459182         7762           99           99            0          718        33000         2999    1.0342104            0 
    2300    1.2117702         3969 0.00066303289   -1.1020806   0.09757192   0.14739196         7722           85           85            0          763        33000         3011    1.0207145            0 
    2400    1.1346978         3969 0.00032819731   -1.0750533  0.048297516   0.21959142         7441           85           85            0          791        33000         3015    1.0248149            0 
    2500    1.0101072         3969 -0.00066523642   -1.0979023 -0.097896192  0.071504865         7554          100          100            0          826        33000         2992    1.0184228            0 
    2600    1.1001621         3969 0.00019146388   -1.0609846  0.028175824   0.25180614         7476           65           65            0          853        33000         3021    1.0033125            0 
    2700    1.2639031         3969 0.0013993435   -1.0453367   0.20592739   0.45684272         7521           90           90            0          878        33000         3024    1.0155836            0 
    2800    1.0939414         3969 0.00052761504   -1.0053581   0.07764383   0.67178336         7449           57           57            0          912        33000         3002    1.0151767            0 
    2900   0.89110379         3969 -0.00076469341  -0.99472503  -0.11253228   0.64482863         7291           78           78            0          939        33000         3008    1.0131291            0 
    3000     1.013726         3969 -0.00012620779   -1.0221615 -0.018572739    0.4957267         7425           81           81            0          971        33000         3029    1.0286167            0 
    3100   0.94646228         3969 -0.00058517083   -1.0231114 -0.086113739    0.5356009         7502           78           78            0          998        33000         2998    1.0289023            0 
    3200    1.0530356         3969 -0.00022884869   -1.0761826 -0.033677374   0.36563516         7336           84           84            0         1019        33000         2995    1.0106503            0 
    3300    1.0895802         3969 0.00028450361   -1.0368168  0.041867551   0.62659867         7624           76           76            0         1040        33000         2997     1.013361            0 
    3400    1.2323679         3969 0.0013803131   -1.0169174   0.20312688   0.75207303         7530           89           89            0         1066        33000         3003    1.0211433            0 
    3500    1.2191836         3969 0.0014243321  -0.99738706   0.20960471   0.86472654         7411          110          110            0         1100        33000         3004    1.0200599            0 
    3600    1.0142038         3969 -0.00059583865   -1.0917454 -0.087683616   0.36993812         7473          101          101            0         1124        33000         3003    1.0161745            0 
    3700    1.0455236         3969 -0.00028296198   -1.0767091 -0.041640685    0.3543031         7318           87           87            0         1155        33000         2991    1.0212977            0 
    3800   0.92631657         3969 -0.0011805871   -1.0907886   -0.1737352   0.25665413         7593           79           79            0         1188        33000         2997    1.0108781            0 
    3900    1.0411588         3969 -0.00033028539    -1.079352 -0.048604799   0.37667282         7477           76           76            0         1218        33000         3009   0.99946614            0 
    4000   0.82847982         3969 -0.0018953765   -1.0991186  -0.27892361   0.16492724         7694           92           92            0         1249        33000         3026    1.0051739            0 
    4100   0.83952003         3969 -0.0018298354   -1.1004034  -0.26927858  0.056088633         7525           85           85            0         1276        33000         3005    1.0106013            0 
    4200   0.88198771         3969 -0.0011642208   -1.0444946  -0.17132674   0.20912433         7502           91           91            0         1306        33000         3008    1.0209817            0 
    4300    0.8911215         3969 -0.0014052802   -1.0890113  -0.20680103   0.12941072         7472          116          116            0         1348        33000         2991    1.0148049            0 
    4400    1.0966624         3969 9.8612607e-05   -1.0711839  0.014511831     0.372459         7766           81           81            0         1374        33000         3016    1.0150488            0 
    4500    1.1278898         3969 0.00014458861   -1.0953333   0.02127766   0.33227081         7531           93           93            0         1409        33000         2995    1.0299326            0 
    4600   0.87667869         3969 -0.0018505872   -1.1402443  -0.27233241   0.15646211         7639          103          103            0         1438        33000         3032     1.029457            0 
    4700   0.96234217         3969 -0.00068171433   -1.0530398  -0.10032108   0.48809843         7575           73           73            0         1469        33000         2979    1.0032844            0 
    4800   0.94969242         3969 -0.001219494   -1.1196562  -0.17946074   0.35536768         7466           94           94            0         1509        33000         3002    1.0244509            0 
    4900    1.0582095         3969 0.00015417718   -1.0249387  0.022688713   0.71622602         7490           85           85            0         1540        33000         3028    1.0233845            0 
    5000   0.90926325         3969 -0.0009138988     -1.03466  -0.13448935   0.49433363         7426           97           97            0         1568        33000         3012    1.0241597            0 
Loop time of 0.57477 on 8 procs for 5000 steps with 14716 atoms

Performance: 751604.796 tau/day, 8699.130 timesteps/s
99.6% CPU use with 8 MPI tasks x no OpenMP threads

MPI task timing breakdown:
Section |  min time  |  avg time  |  max time  |%varavg| %total
---------------------------------------------------------------
Pair    | 0.0031332  | 0.0046067  | 0.0069683  |   1.7 |  0.80
Neigh   | 0.00099625 | 0.0012201  | 0.0015138  |   0.5 |  0.21
Comm    | 0.088152   | 0.089137   | 0.090273   |   0.2 | 15.51
Output  | 0.0031868  | 0.0032835  | 0.0035556  |   0.2 |  0.57
Modify  | 0.43652    | 0.44761    | 0.45518    |   0.9 | 77.88
Other   |            | 0.02891    |            |       |  5.03

Nlocal:    1839.5 ave 1997 max 1568 min
Histogram: 1 0 0 0 2 0 0 1 3 1
Nghost:    40.875 ave 44 max 36 min
Histogram: 1 1 0 0 0 0 2 2 0 2
Neighs:    60.125 ave 109 max 41 min
Histogram: 4 0 1 1 0 1 0 0 0 1

Total # of neighbors = 481
Ave neighs/atom = 0.0326855
Neighbor list builds = 250
Dangerous builds = 0

Please see the log.cite file for references relevant to this simulation

Total wall time: 0:00:00
