LAMMPS (4 Jan 2019)
units		real
atom_style	full

pair_style	lj/cut/tip4p/long 1 2 1 1 0.14714951 8
bond_style	class2
angle_style	harmonic
kspace_style	pppm/tip4p 0.0001

read_data	data.h2o-quantum
  orthogonal box = (-0.025952 -0.072222 0.103767) to (12.3984 12.3522 12.5282)
  2 by 2 by 2 MPI processor grid
  reading atoms ...
  192 atoms
  scanning bonds ...
  2 = max bonds/atom
  scanning angles ...
  1 = max angles/atom
  reading bonds ...
  128 bonds
  reading angles ...
  64 angles
  2 = max # of 1-2 neighbors
  1 = max # of 1-3 neighbors
  1 = max # of 1-4 neighbors
  2 = max # of special neighbors

pair_coeff  * 2  0.0     0.0
pair_coeff  1 1  0.1852  3.1589022

#q-tip4pf bond parameters
bond_coeff      1 0.9419 607.19354  -1388.6516 1852.577
angle_coeff     1 43.93  107.4

timestep	0.5

# mean velocity is higher than target T because of zero point energy
velocity        all create 800.0 1112 dist gaussian mom yes

thermo          100
thermo_style    custom step temp pe ke etotal

# some problem
fix	 1 all gle 6 300.0 300.0 31415 qt-300k.A noneq qt-300k.C
Reading A-matrix from qt-300k.A
Reading C-matrix from qt-300k.C
fix_modify 1 energy no

#dump		1 all atom 100 h2o-smart.lammpstrj

#dump		2 all image 1000 h2o-smart.*.jpg element element #		zoom 1.4
#dump_modify	2 pad 5 element O H

#dump		3 all movie 100 movie.mp4 element element #		zoom 1.4
#dump_modify	3 pad 5 element O H

run		10000
PPPM initialization ...
  extracting TIP4P info from pair style
  using 12-bit tables for long-range coulomb (../kspace.cpp:321)
  G vector (1/distance) = 0.352417
  grid = 10 10 10
  stencil order = 5
  estimated absolute RMS force accuracy = 0.0229722
  estimated relative force accuracy = 6.91802e-05
  using double precision FFTs
  3d grid and FFT values/proc = 1728 200
Neighbor list info ...
  update every 1 steps, delay 10 steps, check yes
  max neighbors/atom: 2000, page size: 100000
  master list distance cutoff = 10.2943
  ghost atom cutoff = 10.2943
  binsize = 5.14715, bins = 3 3 3
  1 neighbor lists, perpetual/occasional/extra = 1 0 0
  (1) pair lj/cut/tip4p/long, perpetual
      attributes: half, newton on
      pair build: half/bin/newton
      stencil: half/bin/3d/newton
      bin: standard
Per MPI rank memory allocation (min/avg/max) = 14.51 | 14.55 | 14.77 Mbytes
Step Temp PotEng KinEng TotEng 
       0          800   -397.88979    455.46778    57.577983 
     100    674.48863   -412.18523    384.00979   -28.175439 
     200    735.74662   -428.27807     418.8861   -9.3919748 
     300    696.97245   -401.13917    396.81062   -4.3285528 
     400    695.11378   -390.89144    395.75241    4.8609694 
     500    791.66029   -433.85958    450.71969    16.860108 
     600    713.64249   -407.92895    406.30145   -1.6274998 
     700    748.95738   -392.17677    426.40744    34.230673 
     800    750.55632   -444.90491    427.31777   -17.587134 
     900    665.43002   -418.87874    378.85242   -40.026327 
    1000    714.06283   -414.55878    406.54076   -8.0180179 
    1100    721.55306   -432.14143    410.80521   -21.336224 
    1200    708.78546   -412.98608    403.53617   -9.4499114 
    1300     705.2092   -424.01778    401.50008   -22.517698 
    1400    708.89274   -426.26149    403.59725   -22.664245 
    1500    677.53027   -375.96191     385.7415    9.7795983 
    1600    691.48534    -377.1828    393.68661    16.503813 
    1700     743.2884     -412.002    423.17989    11.177891 
    1800    616.05339   -361.41658    350.74058   -10.675995 
    1900    696.54684   -407.64798     396.5683   -11.079677 
    2000     676.9145    -345.6733    385.39093    39.717624 
    2100    768.34468    -386.5261     437.4453      50.9192 
    2200    774.50165   -383.93582    440.95068    57.014865 
    2300    748.18178   -355.91572    425.96586    70.050144 
    2400    793.39175    -360.4792    451.70547    91.226266 
    2500     803.7062   -368.70852    457.57785    88.869324 
    2600    832.49841   -396.83438    473.97025    77.135865 
    2700    707.68452   -330.94907    402.90937    71.960299 
    2800    781.09387   -386.90348    444.70386    57.800374 
    2900    734.54948   -405.97442    418.20452    12.230108 
    3000    851.18512   -418.65903    484.60924    65.950211 
    3100    732.64874   -356.00426    417.12236    61.118103 
    3200    814.67043   -394.83373    463.82016    68.986432 
    3300    741.38967   -388.42537    422.09888    33.673508 
    3400    748.41182   -373.04719    426.09684    53.049642 
    3500    807.63197   -375.65223    459.81292    84.160691 
    3600    817.16993    -358.7573    465.24321    106.48591 
    3700    782.68717   -395.80911    445.61098    49.801877 
    3800    759.62469   -352.48717    432.48071    79.993535 
    3900    828.05739   -385.06765    471.44182    86.374177 
    4000    761.16953   -398.97479    433.36024    34.385452 
    4100    735.62292   -389.81439    418.81567    29.001279 
    4200    776.60162   -380.77923    442.14627    61.367037 
    4300    797.10745   -403.37133    453.82094     50.44961 
    4400    698.32944   -353.14606    397.58319    44.437133 
    4500    746.01675   -398.84662    424.73324    25.886621 
    4600     738.7482    -426.6184      420.595    -6.023401 
    4700    721.05176   -383.95982     410.5198    26.559984 
    4800    746.90827    -390.1111    425.24081    35.129707 
    4900    684.23983   -358.38143    389.56149    31.180064 
    5000    741.14067    -352.1598    421.95712    69.797319 
    5100    731.54898   -379.45429    416.49623    37.041943 
    5200    723.94413    -372.8204    412.16653    39.346124 
    5300    782.82595   -364.58583    445.68999    81.104158 
    5400    879.83898   -416.51381    500.92288    84.409067 
    5500     826.7699   -360.96377    470.70881    109.74504 
    5600    771.16619    -353.1241    439.05168     85.92758 
    5700    711.40967   -347.10077    405.03022    57.929454 
    5800    751.90302   -361.18222     428.0845    66.902279 
    5900      789.913   -387.41912     449.7249     62.30578 
    6000      718.403   -367.63476    409.01177    41.377016 
    6100    745.90912   -407.27833    424.67196    17.393626 
    6200    788.05199   -393.67463    448.66536    54.990729 
    6300    744.48342   -371.46785    423.86026    52.392413 
    6400    648.31905   -339.32893    369.11055     29.78162 
    6500    732.40564   -383.10507    416.98396     33.87889 
    6600    777.38241   -376.63428     442.5908    65.956523 
    6700    741.63195    -354.3115    422.23682     67.92532 
    6800    752.70049   -347.85368    428.53852    80.684844 
    6900    779.70141   -378.29698    443.91108    65.614101 
    7000    802.34284   -412.91427    456.80164    43.887368 
    7100    771.95309    -389.5298     439.4997    49.969895 
    7200    720.12179   -341.81988    409.99034    68.170455 
    7300    776.85298   -371.46951    442.28937    70.819862 
    7400    772.78437   -386.90466    439.97297     53.06831 
    7500    727.21163    -357.5388    414.02683    56.488032 
    7600    788.11118    -384.2983    448.69906    64.400761 
    7700    803.69473   -370.93418    457.57132    86.637135 
    7800    807.46191   -370.05708     459.7161    89.659022 
    7900    785.82241   -339.97117    447.39598    107.42481 
    8000     789.9496   -333.96801    449.74573    115.77773 
    8100    828.91745   -358.33986    471.93148    113.59163 
    8200    789.94982   -361.23322    449.74586    88.512637 
    8300    769.43018   -331.12498    438.06332    106.93834 
    8400    757.70412   -378.41877    431.38726    52.968489 
    8500    754.99082   -386.29964    429.84249    43.542845 
    8600    743.95752   -375.19488    423.56085    48.365962 
    8700    742.39799   -394.94482    422.67295    27.728132 
    8800    785.70237   -415.53513    447.32764    31.792509 
    8900    784.33245   -396.03699     446.5477    50.510703 
    9000    741.01858   -405.45906     421.8876    16.428545 
    9100    708.93887   -397.19759    403.62351    6.4259192 
    9200    751.99958    -414.0034    428.13947    14.136072 
    9300     747.3292   -378.37509    425.48046     47.10537 
    9400     722.5428   -406.83312     411.3687    4.5355828 
    9500    797.06548   -413.68331    453.79705    40.113744 
    9600     698.3111   -401.26891    397.57276   -3.6961509 
    9700    688.42936    -421.0397    391.94674   -29.092957 
    9800    701.42306   -433.83318     399.3445   -34.488682 
    9900      694.306   -425.11338    395.29251   -29.820865 
   10000    780.96344   -432.94078     444.6296     11.68882 
Loop time of 6.788 on 8 procs for 10000 steps with 192 atoms

Performance: 63.642 ns/day, 0.377 hours/ns, 1473.187 timesteps/s
96.7% CPU use with 8 MPI tasks x no OpenMP threads

MPI task timing breakdown:
Section |  min time  |  avg time  |  max time  |%varavg| %total
---------------------------------------------------------------
Pair    | 1.653      | 1.9135     | 2.1948     |  10.8 | 28.19
Bond    | 0.012983   | 0.014731   | 0.016382   |   0.8 |  0.22
Kspace  | 2.1296     | 2.3773     | 2.6141     |   9.1 | 35.02
Neigh   | 0.025455   | 0.025932   | 0.026227   |   0.2 |  0.38
Comm    | 1.423      | 1.4655     | 1.4941     |   2.3 | 21.59
Output  | 0.0019068  | 0.0025861  | 0.0031468  |   0.7 |  0.04
Modify  | 0.75192    | 0.8215     | 0.9368     |   6.2 | 12.10
Other   |            | 0.167      |            |       |  2.46

Nlocal:    24 ave 27 max 21 min
Histogram: 1 0 0 2 0 2 2 0 0 1
Nghost:    1897 ave 1937 max 1848 min
Histogram: 1 0 0 1 2 0 2 0 1 1
Neighs:    5473.25 ave 6049 max 4597 min
Histogram: 1 0 0 0 3 0 1 0 1 2

Total # of neighbors = 43786
Ave neighs/atom = 228.052
Ave special neighs/atom = 2
Neighbor list builds = 87
Dangerous builds = 0

Total wall time: 0:00:06
