LAMMPS (5 May 2020)
units		real
atom_style	full

pair_style	lj/cut/tip4p/long 1 2 1 1 0.14714951 8
bond_style	class2
angle_style	harmonic
kspace_style	pppm/tip4p 0.0001

read_data	data.h2o-smart
  orthogonal box = (-0.1607 0.08867 -0.104992) to (12.2637 12.5131 12.3194)
  2 by 2 by 2 MPI processor grid
  reading atoms ...
  192 atoms
  scanning bonds ...
  2 = max bonds/atom
  scanning angles ...
  1 = max angles/atom
  reading bonds ...
  128 bonds
  reading angles ...
  64 angles
  2 = max # of 1-2 neighbors
  1 = max # of 1-3 neighbors
  1 = max # of 1-4 neighbors
  2 = max # of special neighbors
  special bonds CPU = 0.000373714 secs
  read_data CPU = 0.00691342 secs

pair_coeff  * 2  0.0     0.0
pair_coeff  1 1  0.1852  3.1589022

#q-tip4pf bond parameters
bond_coeff      1 0.9419 607.19354  -1388.6516 1852.577
angle_coeff     1 43.93  107.4

timestep	0.5

velocity	all create 300.0 1112 dist gaussian mom yes

thermo          100
thermo_style    custom step temp pe ke etotal

# smart sampling with GLE: best efficiency on slow diffusive modes,
# and as good as possible on higher-frequency modes
fix		1 all gle 6 300.0 300.0 31415 smart.A
Reading A-matrix from smart.A
fix_modify	1 energy no

#dump		1 all atom 100 h2o-smart.lammpstrj

#dump		2 all image 1000 h2o-smart.*.jpg element element #		zoom 1.4
#dump_modify	2 pad 5 element O H

#dump		3 all movie 100 movie.mp4 element element #		zoom 1.4
#dump_modify	3 pad 5 element O H

run		10000
PPPM initialization ...
  extracting TIP4P info from pair style
  using 12-bit tables for long-range coulomb (src/kspace.cpp:332)
  G vector (1/distance) = 0.352417
  grid = 10 10 10
  stencil order = 5
  estimated absolute RMS force accuracy = 0.0229722
  estimated relative force accuracy = 6.91802e-05
  using double precision FFTW3
  3d grid and FFT values/proc = 1728 200
Neighbor list info ...
  update every 1 steps, delay 10 steps, check yes
  max neighbors/atom: 2000, page size: 100000
  master list distance cutoff = 10.2943
  ghost atom cutoff = 10.2943
  binsize = 5.14715, bins = 3 3 3
  1 neighbor lists, perpetual/occasional/extra = 1 0 0
  (1) pair lj/cut/tip4p/long, perpetual
      attributes: half, newton on
      pair build: half/bin/newton
      stencil: half/bin/3d/newton
      bin: standard
Per MPI rank memory allocation (min/avg/max) = 14.76 | 14.77 | 14.77 Mbytes
Step Temp PotEng KinEng TotEng 
       0          300   -670.21264    170.80042   -499.41223 
     100    306.14212   -664.27053    174.29734   -489.97319 
     200    304.01844   -664.16923    173.08825   -491.08098 
     300    304.27393   -671.35535    173.23371   -498.12164 
     400    308.15784   -677.60578    175.44496   -502.16083 
     500    319.96332   -677.31539    182.16623   -495.14917 
     600    287.02269   -666.49903    163.41199   -503.08704 
     700    275.34759   -652.83654    156.76494    -496.0716 
     800    282.25663   -650.99706     160.6985   -490.29856 
     900    291.72954   -657.66443    166.09176   -491.57267 
    1000    293.89319   -672.61266     167.3236   -505.28906 
    1100    283.20782   -665.70835    161.24005   -504.46831 
    1200    281.84271   -659.26397    160.46284   -498.80113 
    1300    280.17635   -654.33743    159.51412   -494.82331 
    1400    284.75526   -655.44173    162.12106   -493.32067 
    1500    306.07801   -665.55249    174.26084   -491.29165 
    1600    286.28729   -641.14184    162.99329   -478.14855 
    1700     298.7244   -649.73519    170.07417   -479.66102 
    1800    280.78432   -645.55666    159.86026    -485.6964 
    1900    300.56828   -661.46466    171.12396    -490.3407 
    2000    260.16922   -645.28477    148.12337    -497.1614 
    2100    248.65893   -640.42637    141.57016   -498.85621 
    2200    270.53528   -650.91398    154.02513   -496.88885 
    2300    289.73187   -652.53815    164.95441   -487.58373 
    2400    286.70865   -662.60227    163.23319   -499.36908 
    2500    275.09903   -663.23612    156.62343   -506.61269 
    2600    301.13414   -665.33319    171.44612   -493.88707 
    2700    283.73525   -651.04103    161.54033    -489.5007 
    2800    276.72227   -658.55073     157.5476   -501.00314 
    2900    291.02919   -667.67223    165.69302   -501.97921 
    3000    290.83686   -660.81135    165.58352   -495.22782 
    3100    289.66547   -664.52918    164.91661   -499.61257 
    3200    271.75029   -662.89917    154.71688   -508.18229 
    3300    277.31769   -665.25934    157.88659   -507.37276 
    3400    268.63205   -652.96393    152.94155   -500.02237 
    3500    299.33802   -667.73297    170.42353   -497.30944 
    3600    282.85821    -659.8738      161.041    -498.8328 
    3700     298.8765   -665.27469    170.16077   -495.11392 
    3800    266.12762   -646.09961    151.51569   -494.58392 
    3900    311.50437   -666.69926    177.35026   -489.34901 
    4000    288.90305   -654.83855    164.48254   -490.35601 
    4100    287.46704   -661.08132    163.66497   -497.41635 
    4200      284.692   -658.98494    162.08504    -496.8999 
    4300    293.47706   -657.59353    167.08668   -490.50685 
    4400    295.54231   -662.85477     168.2625   -494.59227 
    4500    289.47655    -648.9191    164.80905   -484.11005 
    4600    297.79122   -648.85474    169.54288   -479.31186 
    4700    279.70088   -643.42066    159.24342   -484.17724 
    4800    294.47622   -645.90706    167.65553   -478.25153 
    4900    287.35107   -641.33087    163.59894   -477.73193 
    5000    307.54001   -653.02005     175.0932   -477.92685 
    5100    294.34439   -650.20257    167.58048   -482.62208 
    5200    306.26882   -661.29721    174.36947   -486.92773 
    5300    302.92267   -670.27346    172.46439   -497.80906 
    5400    290.85329   -659.55099    165.59288   -493.95811 
    5500    314.68605   -661.04341     179.1617   -481.88171 
    5600    280.73071   -645.63346    159.82974   -485.80372 
    5700    290.31491   -641.52122    165.28636   -476.23487 
    5800    288.48849   -638.60079    164.24652   -474.35427 
    5900    317.17009   -656.31152    180.57595   -475.73557 
    6000    329.61777   -660.69524    187.66284    -473.0324 
    6100    292.05634   -647.60188    166.27782   -481.32407 
    6200    318.43855   -664.55215    181.29812   -483.25403 
    6300    284.83241   -640.32549    162.16498   -478.16051 
    6400    308.05007   -651.16159     175.3836   -475.77799 
    6500    314.34848   -652.68113     178.9695   -473.71163 
    6600    301.60733   -652.97705    171.71553   -481.26153 
    6700    300.89512   -666.23368    171.31004   -494.92364 
    6800    320.96604   -661.49971    182.73711    -478.7626 
    6900    337.74195   -667.98516    192.28822   -475.69694 
    7000    303.58702   -652.72355    172.84263   -479.88092 
    7100    306.74794   -651.04516    174.64225   -476.40291 
    7200    291.53159   -641.03018    165.97905   -475.05112 
    7300    281.52637   -639.93844    160.28274    -479.6557 
    7400    336.81518   -677.30076    191.76058   -485.54019 
    7500     292.8921   -653.94779    166.75364   -487.19415 
    7600    293.75858   -657.80626    167.24696   -490.55931 
    7700    292.33414   -656.48125    166.43598   -490.04527 
    7800    288.50085   -648.39463    164.25355   -484.14108 
    7900    307.64672   -656.86457    175.15396   -481.71061 
    8000     302.9498   -663.73725    172.47984   -491.25741 
    8100    270.01401   -636.41077    153.72835   -482.68242 
    8200    312.13744   -657.59696    177.71068   -479.88628 
    8300    315.00039   -667.69817    179.34066   -488.35751 
    8400    335.99535   -673.28613    191.29382   -481.99231 
    8500    300.42425   -644.25321    171.04196   -473.21125 
    8600    292.85708   -638.57882    166.73371   -471.84512 
    8700    292.62046   -655.79529    166.59899    -489.1963 
    8800    292.06196    -646.7063    166.28101   -480.42528 
    8900    281.67123   -648.00887    160.36521   -487.64366 
    9000    284.31222   -652.38554    161.86882   -490.51672 
    9100    315.02882   -661.22941    179.35685   -481.87256 
    9200    308.97812   -657.54466    175.91197   -481.63268 
    9300    314.03783   -658.34516    178.79264   -479.55252 
    9400    283.60409   -633.93512    161.46566   -472.46947 
    9500     303.3532    -650.0674    172.70951   -477.35789 
    9600    279.77438    -637.7755    159.28527   -478.49023 
    9700    287.49233   -640.64004    163.67936   -476.96067 
    9800    302.78789   -644.77007    172.38766   -472.38241 
    9900     290.4304   -647.06078    165.35211   -481.70867 
   10000    314.69996   -662.62803    179.16961   -483.45841 
Loop time of 5.49341 on 8 procs for 10000 steps with 192 atoms

Performance: 78.640 ns/day, 0.305 hours/ns, 1820.365 timesteps/s
81.0% CPU use with 8 MPI tasks x no OpenMP threads

MPI task timing breakdown:
Section |  min time  |  avg time  |  max time  |%varavg| %total
---------------------------------------------------------------
Pair    | 0.9786     | 1.4428     | 2.1624     |  32.9 | 26.26
Bond    | 0.01105    | 0.015442   | 0.022127   |   2.8 |  0.28
Kspace  | 1.4289     | 2.1184     | 2.5638     |  25.7 | 38.56
Neigh   | 0.033753   | 0.035857   | 0.038248   |   0.9 |  0.65
Comm    | 0.89139    | 0.95857    | 1.0095     |   4.2 | 17.45
Output  | 0.0020604  | 0.003333   | 0.0042238  |   1.3 |  0.06
Modify  | 0.43008    | 0.615      | 0.86746    |  18.7 | 11.20
Other   |            | 0.304      |            |       |  5.53

Nlocal:    24 ave 27 max 19 min
Histogram: 1 0 1 0 0 1 0 3 0 2
Nghost:    1916.38 ave 1940 max 1904 min
Histogram: 3 1 0 1 1 0 0 1 0 1
Neighs:    5476.5 ave 6321 max 4399 min
Histogram: 2 0 0 0 1 1 1 0 1 2

Total # of neighbors = 43812
Ave neighs/atom = 228.188
Ave special neighs/atom = 2
Neighbor list builds = 129
Dangerous builds = 0

Total wall time: 0:00:05
