LAMMPS (5 May 2020)
units		real
atom_style	full

pair_style	lj/cut/tip4p/long 1 2 1 1 0.14714951 8
bond_style	class2
angle_style	harmonic
kspace_style	pppm/tip4p 0.0001

read_data	data.h2o-quantum
  orthogonal box = (-0.025952 -0.072222 0.103767) to (12.3984 12.3522 12.5282)
  2 by 2 by 2 MPI processor grid
  reading atoms ...
  192 atoms
  scanning bonds ...
  2 = max bonds/atom
  scanning angles ...
  1 = max angles/atom
  reading bonds ...
  128 bonds
  reading angles ...
  64 angles
  2 = max # of 1-2 neighbors
  1 = max # of 1-3 neighbors
  1 = max # of 1-4 neighbors
  2 = max # of special neighbors
  special bonds CPU = 0.000520564 secs
  read_data CPU = 0.0068495 secs

pair_coeff  * 2  0.0     0.0
pair_coeff  1 1  0.1852  3.1589022

#q-tip4pf bond parameters
bond_coeff      1 0.9419 607.19354  -1388.6516 1852.577
angle_coeff     1 43.93  107.4

timestep	0.5

# mean velocity is higher than target T because of zero point energy
velocity        all create 800.0 1112 dist gaussian mom yes

thermo          100
thermo_style    custom step temp pe ke etotal

# some problem
fix	 1 all gle 6 300.0 300.0 31415 qt-300k.A noneq qt-300k.C
Reading A-matrix from qt-300k.A
Reading C-matrix from qt-300k.C
fix_modify 1 energy no

#dump		1 all atom 100 h2o-smart.lammpstrj

#dump		2 all image 1000 h2o-smart.*.jpg element element #		zoom 1.4
#dump_modify	2 pad 5 element O H

#dump		3 all movie 100 movie.mp4 element element #		zoom 1.4
#dump_modify	3 pad 5 element O H

run		10000
PPPM initialization ...
  extracting TIP4P info from pair style
  using 12-bit tables for long-range coulomb (src/kspace.cpp:332)
  G vector (1/distance) = 0.352417
  grid = 10 10 10
  stencil order = 5
  estimated absolute RMS force accuracy = 0.0229722
  estimated relative force accuracy = 6.91802e-05
  using double precision FFTW3
  3d grid and FFT values/proc = 1728 200
Neighbor list info ...
  update every 1 steps, delay 10 steps, check yes
  max neighbors/atom: 2000, page size: 100000
  master list distance cutoff = 10.2943
  ghost atom cutoff = 10.2943
  binsize = 5.14715, bins = 3 3 3
  1 neighbor lists, perpetual/occasional/extra = 1 0 0
  (1) pair lj/cut/tip4p/long, perpetual
      attributes: half, newton on
      pair build: half/bin/newton
      stencil: half/bin/3d/newton
      bin: standard
Per MPI rank memory allocation (min/avg/max) = 14.76 | 14.77 | 14.77 Mbytes
Step Temp PotEng KinEng TotEng 
       0          800   -397.88979    455.46778    57.577983 
     100    674.48863   -412.18523    384.00979   -28.175439 
     200    735.74662   -428.27807     418.8861   -9.3919748 
     300    696.97245   -401.13917    396.81062   -4.3285528 
     400    695.11378   -390.89144    395.75241    4.8609694 
     500    791.66029   -433.85958    450.71969    16.860108 
     600    713.64249   -407.92895    406.30145   -1.6274998 
     700    748.95738   -392.17677    426.40744    34.230673 
     800    750.55632   -444.90491    427.31777   -17.587134 
     900    665.43002   -418.87874    378.85242   -40.026327 
    1000    714.06283   -414.55878    406.54076   -8.0180179 
    1100    721.55306   -432.14143    410.80521   -21.336224 
    1200    708.78546   -412.98608    403.53617   -9.4499114 
    1300     705.2092   -424.01778    401.50008   -22.517697 
    1400    708.89274   -426.26149    403.59725   -22.664243 
    1500    677.53027   -375.96192     385.7415    9.7795859 
    1600    691.48534   -377.18279    393.68661    16.503825 
    1700    743.28839   -412.00201    423.17989    11.177879 
    1800    616.05339   -361.41656    350.74059   -10.675975 
    1900    696.54684     -407.648     396.5683   -11.079703 
    2000    676.91449   -345.67331    385.39092    39.717607 
    2100    768.34469   -386.52609    437.44531    50.919213 
    2200    774.50167    -383.9358    440.95069    57.014889 
    2300    748.18178   -355.91571    425.96586    70.050155 
    2400     793.3918   -360.47923     451.7055    91.226268 
    2500    803.70623   -368.70857    457.57786    88.869286 
    2600    832.49838   -396.83439    473.97023    77.135847 
    2700    707.68455    -330.9491    402.90938    71.960281 
    2800    781.09386   -386.90343    444.70385    57.800424 
    2900    734.54944   -405.97425     418.2045    12.230255 
    3000    851.18511   -418.65887    484.60923    65.950361 
    3100    732.64925    -356.0044    417.12266    61.118258 
    3200    814.67081   -394.83371    463.82038    68.986671 
    3300    741.39016   -388.42547    422.09916    33.673685 
    3400    748.41103   -373.04662    426.09638    53.049764 
    3500    807.63298   -375.65237     459.8135    84.161128 
    3600    817.16958   -358.75666    465.24301    106.48635 
    3700    782.68731   -395.80908    445.61106    49.801979 
    3800    759.62584   -352.48715    432.48137    79.994218 
    3900    828.05695   -385.06662    471.44157    86.374953 
    4000    761.16753   -398.97378     433.3591    34.385323 
    4100    735.62137   -389.81314    418.81479    29.001648 
    4200     776.5986   -380.77667    442.14454    61.367874 
    4300    797.10573   -403.36934    453.81997     50.45063 
    4400    698.32322   -353.14206    397.57965    44.437592 
    4500    746.00987   -398.84313    424.72932    25.886192 
    4600    738.75084   -426.62038     420.5965   -6.0238819 
    4700    721.05354   -383.96177    410.52082    26.559048 
    4800    746.90224   -390.11099    425.23738    35.126385 
    4900    684.23113   -358.38175    389.55654    31.174791 
    5000    741.12877   -352.15886    421.95034     69.79148 
    5100     731.5367   -379.45572    416.48924    37.033521 
    5200    723.93335   -372.82844    412.16039    39.331953 
    5300    782.83784   -364.60232    445.69676    81.094448 
    5400    879.79642   -416.50111    500.89865    84.397533 
    5500    826.76352   -360.96216    470.70518    109.74301 
    5600    771.16475   -353.11234    439.05087     85.93853 
    5700     711.3552   -347.05629    404.99922    57.942921 
    5800    751.91473   -361.16816    428.09116    66.922998 
    5900    789.94113   -387.43452    449.74091    62.306389 
    6000    718.37037   -367.59126    408.99319    41.401932 
    6100    745.90652   -407.26192    424.67048    17.408562 
    6200    787.92495   -393.57128    448.59303    55.021746 
    6300    744.52979   -371.39159    423.88666    52.495066 
    6400    648.30957   -339.12969    369.10515    29.975456 
    6500    733.25868   -383.32189    417.46962    34.147736 
    6600    776.93607   -376.06691    442.33668    66.269772 
    6700    741.47132   -354.18126    422.14537    67.964102 
    6800    752.33455   -348.04617    428.33018    80.284015 
    6900    780.71701    -379.1715     444.4893    65.317801 
    7000    803.84779   -413.91297    457.65845    43.745484 
    7100    772.06634   -389.81486    439.56417    49.749309 
    7200    721.05654   -342.56351    410.52252    67.959018 
    7300     776.1818   -371.39476    441.90724    70.512481 
    7400    771.86102   -386.89566    439.44728     52.55162 
    7500    723.64671   -356.42069     411.9972    55.576513 
    7600     832.9952   -419.33854    474.25309    54.914553 
    7700    736.28363   -370.99154    419.19184    48.200299 
    7800    748.03963   -376.75448    425.88493    49.130449 
    7900    786.54361    -391.5973    447.80659    56.209289 
    8000      778.624   -410.13432    443.29768    33.163354 
    8100    803.23778   -404.80308    457.31116    52.508078 
    8200    776.26648   -384.10291    441.95546    57.852548 
    8300    717.85415   -364.29693    408.69929     44.40236 
    8400    757.66056   -368.44645    431.36247    62.916013 
    8500    745.80395   -387.22031    424.61208    37.391775 
    8600    768.71019   -350.21247     437.6534    87.440935 
    8700     750.5164   -376.84567    427.29505    50.449375 
    8800    786.45347   -393.14071    447.75526    54.614553 
    8900    759.15827   -384.94262    432.21516    47.272537 
    9000    754.74649    -391.3499    429.70338    38.353477 
    9100    756.79563   -375.35878    430.87003    55.511244 
    9200    763.54606   -397.26166    434.71328    37.451621 
    9300    743.98517   -390.15862    423.57659    33.417971 
    9400    750.40367     -393.176    427.23086    34.054858 
    9500    690.89936   -372.22064    393.35299    21.132349 
    9600    780.54407   -422.14923    444.39084    22.241603 
    9700     681.6585   -354.49789    388.09185    33.593957 
    9800    762.60119   -377.59863    434.17534    56.576706 
    9900     797.6746   -381.85457    454.14384     72.28927 
   10000    760.44953   -381.74796    432.95032    51.202361 
Loop time of 5.37524 on 8 procs for 10000 steps with 192 atoms

Performance: 80.368 ns/day, 0.299 hours/ns, 1860.382 timesteps/s
82.2% CPU use with 8 MPI tasks x no OpenMP threads

MPI task timing breakdown:
Section |  min time  |  avg time  |  max time  |%varavg| %total
---------------------------------------------------------------
Pair    | 1.0247     | 1.4279     | 2.0411     |  29.6 | 26.56
Bond    | 0.012552   | 0.015797   | 0.022657   |   2.8 |  0.29
Kspace  | 1.5007     | 2.0654     | 2.475      |  23.7 | 38.43
Neigh   | 0.019181   | 0.020279   | 0.021743   |   0.6 |  0.38
Comm    | 0.86715    | 0.93181    | 0.9768     |   3.7 | 17.34
Output  | 0.0021     | 0.003351   | 0.004847   |   1.4 |  0.06
Modify  | 0.47344    | 0.61684    | 0.84579    |  16.3 | 11.48
Other   |            | 0.2938     |            |       |  5.47

Nlocal:    24 ave 28 max 20 min
Histogram: 1 0 0 2 0 2 2 0 0 1
Nghost:    1908.25 ave 1934 max 1883 min
Histogram: 1 1 2 0 0 0 0 2 0 2
Neighs:    5472.25 ave 6272 max 4210 min
Histogram: 1 0 0 0 1 1 2 1 1 1

Total # of neighbors = 43778
Ave neighs/atom = 228.01
Ave special neighs/atom = 2
Neighbor list builds = 78
Dangerous builds = 0

Total wall time: 0:00:05
