LAMMPS (4 Jan 2019)
units		real
atom_style	full

pair_style	lj/cut/tip4p/long 1 2 1 1 0.14714951 8
bond_style	class2
angle_style	harmonic
kspace_style	pppm/tip4p 0.0001

read_data	data.h2o-smart
  orthogonal box = (-0.1607 0.08867 -0.104992) to (12.2637 12.5131 12.3194)
  2 by 2 by 2 MPI processor grid
  reading atoms ...
  192 atoms
  scanning bonds ...
  2 = max bonds/atom
  scanning angles ...
  1 = max angles/atom
  reading bonds ...
  128 bonds
  reading angles ...
  64 angles
  2 = max # of 1-2 neighbors
  1 = max # of 1-3 neighbors
  1 = max # of 1-4 neighbors
  2 = max # of special neighbors

pair_coeff  * 2  0.0     0.0
pair_coeff  1 1  0.1852  3.1589022

#q-tip4pf bond parameters
bond_coeff      1 0.9419 607.19354  -1388.6516 1852.577
angle_coeff     1 43.93  107.4

timestep	0.5

velocity	all create 300.0 1112 dist gaussian mom yes

thermo          100
thermo_style    custom step temp pe ke etotal

# smart sampling with GLE: best efficiency on slow diffusive modes,
# and as good as possible on higher-frequency modes
fix		1 all gle 6 300.0 300.0 31415 smart.A
Reading A-matrix from smart.A
fix_modify	1 energy no

#dump		1 all atom 100 h2o-smart.lammpstrj

#dump		2 all image 1000 h2o-smart.*.jpg element element #		zoom 1.4
#dump_modify	2 pad 5 element O H

#dump		3 all movie 100 movie.mp4 element element #		zoom 1.4
#dump_modify	3 pad 5 element O H

run		10000
PPPM initialization ...
  extracting TIP4P info from pair style
  using 12-bit tables for long-range coulomb (../kspace.cpp:321)
  G vector (1/distance) = 0.352417
  grid = 10 10 10
  stencil order = 5
  estimated absolute RMS force accuracy = 0.0229722
  estimated relative force accuracy = 6.91802e-05
  using double precision FFTs
  3d grid and FFT values/proc = 1728 200
Neighbor list info ...
  update every 1 steps, delay 10 steps, check yes
  max neighbors/atom: 2000, page size: 100000
  master list distance cutoff = 10.2943
  ghost atom cutoff = 10.2943
  binsize = 5.14715, bins = 3 3 3
  1 neighbor lists, perpetual/occasional/extra = 1 0 0
  (1) pair lj/cut/tip4p/long, perpetual
      attributes: half, newton on
      pair build: half/bin/newton
      stencil: half/bin/3d/newton
      bin: standard
Per MPI rank memory allocation (min/avg/max) = 14.51 | 14.55 | 14.76 Mbytes
Step Temp PotEng KinEng TotEng 
       0          300   -670.21264    170.80042   -499.41223 
     100    306.14212   -664.27053    174.29734   -489.97319 
     200    304.01844   -664.16923    173.08825   -491.08098 
     300    304.27393   -671.35535    173.23371   -498.12164 
     400    308.15784   -677.60578    175.44496   -502.16083 
     500    319.96332   -677.31539    182.16623   -495.14917 
     600    287.02269   -666.49901    163.41199   -503.08703 
     700     275.3476   -652.83653    156.76495   -496.07158 
     800    282.25662   -650.99703    160.69849   -490.29853 
     900    291.72957   -657.66447    166.09177    -491.5727 
    1000    293.89317    -672.6127    167.32359   -505.28911 
    1100     283.2079   -665.70834    161.24009   -504.46824 
    1200    281.84255   -659.26375    160.46275     -498.801 
    1300    280.17696   -654.33755    159.51447   -494.82307 
    1400    284.75481   -655.44048     162.1208   -493.31968 
    1500    306.07802    -665.5526    174.26084   -491.29176 
    1600    286.28569   -641.13954    162.99238   -478.14716 
    1700     298.7248   -649.73539     170.0744   -479.66099 
    1800    280.78592    -645.5573    159.86117   -485.69613 
    1900    300.56866   -661.46698    171.12417   -490.34281 
    2000    260.39823   -640.76408    148.25375   -492.51033 
    2100    259.58233   -633.69609    147.78923   -485.90685 
    2200    275.75998   -642.84901    156.99973   -485.84928 
    2300    295.71442   -647.67424    168.36049   -479.31375 
    2400    296.44258   -647.04672    168.77506   -478.27166 
    2500    301.90067   -654.22759    171.88253   -482.34506 
    2600    289.74575   -653.56361    164.96231    -488.6013 
    2700    285.38193   -649.59869    162.47784   -487.12085 
    2800       295.01   -651.60205    167.95943   -483.64262 
    2900    321.03363    -662.2247    182.77559    -479.4491 
    3000    294.88293   -645.79083    167.88709   -477.90375 
    3100    293.97419   -645.55854    167.36971   -478.18882 
    3200    316.33795    -650.6079    180.10218   -470.50572 
    3300    318.94768   -651.86989    181.58799    -470.2819 
    3400    303.09716   -634.48035    172.56374   -461.91662 
    3500     298.3926   -628.12053    169.88527   -458.23526 
    3600    309.68707    -640.4499     176.3156    -464.1343 
    3700    318.14686   -650.46936    181.13205   -469.33731 
    3800    301.77138   -638.63693    171.80892   -466.82801 
    3900    304.29855    -641.0114    173.24773   -467.76367 
    4000    303.99439   -640.88039    173.07456   -467.80583 
    4100    286.19984   -637.06876     162.9435   -474.12526 
    4200     284.8379   -634.25654     162.1681   -472.08843 
    4300    292.57629   -638.86767    166.57384   -472.29383 
    4400    272.67043   -634.71105    155.24074   -479.47031 
    4500    288.55047   -654.77025     164.2818   -490.48844 
    4600    290.14902   -653.16562    165.19191   -487.97371 
    4700    305.27486   -651.25309    173.80358   -477.44951 
    4800    285.63112   -641.88663    162.61972   -479.26691 
    4900    281.91285   -650.68699    160.50278   -490.18421 
    5000    316.11422   -669.20671     179.9748   -489.23191 
    5100    303.48163   -656.42886    172.78263   -483.64623 
    5200    307.10541    -655.8474    174.84577   -481.00162 
    5300    285.81523   -650.86817    162.72453   -488.14364 
    5400    292.36899   -660.90422    166.45582    -494.4484 
    5500    290.21759   -656.41742    165.23095   -491.18647 
    5600    298.52594   -654.89645    169.96118   -484.93526 
    5700    304.12659   -660.19762    173.14983   -487.04779 
    5800     297.3638   -654.45028    169.29954   -485.15074 
    5900    283.80311   -649.02632    161.57896   -487.44735 
    6000    303.50029   -656.46746    172.79325   -483.67421 
    6100    285.21356    -641.5022    162.38198   -479.12022 
    6200    314.14738   -653.57428    178.85501   -474.71927 
    6300    282.18264    -637.0845    160.65638   -476.42813 
    6400    283.38388   -639.90735    161.34028   -478.56707 
    6500    306.21608   -649.83422    174.33945   -475.49478 
    6600    279.85236   -645.93573    159.32967   -486.60607 
    6700    296.33726   -656.39877    168.71509   -487.68368 
    6800    271.96523   -638.65765    154.83925    -483.8184 
    6900    305.34637   -664.70202    173.84429   -490.85772 
    7000    292.98087   -648.96271    166.80418   -482.15853 
    7100    311.05192   -664.56968    177.09266   -487.47702 
    7200    305.93516   -659.37851    174.17951     -485.199 
    7300    284.68259   -652.87523    162.07968   -490.79555 
    7400      311.447   -656.83681    177.31759   -479.51922 
    7500    290.38875   -659.53776     165.3284   -494.20936 
    7600    289.69859    -660.7543    164.93547   -495.81883 
    7700    310.10222   -662.32624    176.55196   -485.77427 
    7800    286.68049   -656.25252    163.21716   -493.03536 
    7900    309.70915   -664.31514    176.32817   -487.98697 
    8000    301.22733   -652.68307    171.49918   -481.18389 
    8100    285.50612   -645.38541    162.54855   -482.83686 
    8200    282.40024   -649.00705    160.78026   -488.22679 
    8300    296.05127   -645.54356    168.55227    -476.9913 
    8400    312.08659    -661.7136    177.68173   -484.03187 
    8500    311.46911   -657.93569    177.33018   -480.60551 
    8600    294.92735    -648.3664    167.91238   -480.45402 
    8700    290.88543   -648.88438    165.61117    -483.2732 
    8800    323.51441   -657.66817    184.18799   -473.48018 
    8900    300.82599   -634.41848    171.27068    -463.1478 
    9000    314.52513   -644.72355    179.07008   -465.65347 
    9100    337.12498   -664.55215    191.93696    -472.6152 
    9200     330.6312   -666.36193    188.23982    -478.1221 
    9300    321.43389   -662.79574    183.00347   -479.79227 
    9400    299.03285   -664.79592    170.24979   -494.54613 
    9500    320.89745   -676.42705    182.69806   -493.72899 
    9600    268.84158   -654.17523    153.06084   -501.11439 
    9700    265.63323   -653.75788    151.23422   -502.52366 
    9800    289.45567   -660.38032    164.79716   -495.58316 
    9900    306.57434   -672.99983    174.54342   -498.45641 
   10000    323.04455   -676.29294    183.92048   -492.37246 
Loop time of 7.17156 on 8 procs for 10000 steps with 192 atoms

Performance: 60.238 ns/day, 0.398 hours/ns, 1394.398 timesteps/s
96.6% CPU use with 8 MPI tasks x no OpenMP threads

MPI task timing breakdown:
Section |  min time  |  avg time  |  max time  |%varavg| %total
---------------------------------------------------------------
Pair    | 1.6765     | 1.9599     | 2.1872     |  12.3 | 27.33
Bond    | 0.012075   | 0.014832   | 0.017424   |   1.4 |  0.21
Kspace  | 2.3876     | 2.615      | 2.8672     |   9.8 | 36.46
Neigh   | 0.044102   | 0.044864   | 0.045343   |   0.2 |  0.63
Comm    | 1.4559     | 1.4853     | 1.5349     |   2.1 | 20.71
Output  | 0.0023859  | 0.0029958  | 0.0039447  |   0.9 |  0.04
Modify  | 0.70383    | 0.83339    | 0.92171    |   7.4 | 11.62
Other   |            | 0.2153     |            |       |  3.00

Nlocal:    24 ave 28 max 19 min
Histogram: 1 1 0 1 0 2 0 0 1 2
Nghost:    1836.12 ave 1867 max 1814 min
Histogram: 1 2 1 0 1 0 2 0 0 1
Neighs:    5485.62 ave 6450 max 4074 min
Histogram: 1 0 0 1 2 1 0 0 1 2

Total # of neighbors = 43885
Ave neighs/atom = 228.568
Ave special neighs/atom = 2
Neighbor list builds = 136
Dangerous builds = 0

Total wall time: 0:00:07
