LAMMPS (30 Jun 2020)
  using 1 OpenMP thread(s) per MPI task
variable number	equal 1
variable ofreq	equal 1000
variable efreq	equal 1000
variable T      equal 0.1

units lj

dimension 3

newton off

boundary  p p p

atom_style hybrid bond ellipsoid
WARNING: Atom_style hybrid defines both pertype and peratom masses - both must be set, only peratom masses will be used (src/atom_vec_hybrid.cpp:156)
atom_modify sort 0 1.0

# Pair interactions require lists of neighbours to be calculated
neighbor 1.0 bin
neigh_modify every 1 delay 0 check yes
special_bonds lj 0 1 1 coul 1 1 1

read_data data.duplex1
  orthogonal box = (-20 -20 -20) to (20 20 20)
  2 by 2 by 2 MPI processor grid
  reading atoms ...
  10 atoms
  reading velocities ...
  10 velocities
  10 ellipsoids
  scanning bonds ...
  2 = max bonds/atom
  reading bonds ...
  8 bonds
  2 = max # of 1-2 neighbors
  2 = max # of special neighbors
  special bonds CPU = 0.001 seconds
  read_data CPU = 0.090 seconds

set atom * mass 3.1575
  10 settings made for mass

group all type 1 4
10 atoms in group all

# oxDNA bond interactions - FENE backbone
bond_style oxdna/fene
bond_coeff * 2.0 0.25 0.7525

# oxDNA pair interactions
pair_style hybrid/overlay oxdna/excv oxdna/stk oxdna/hbond oxdna/xstk oxdna/coaxstk
pair_coeff * * oxdna/excv    2.0 0.7 0.675 2.0 0.515 0.5 2.0 0.33 0.32
pair_coeff * * oxdna/stk     seqav ${T} 1.3448 2.6568 6.0 0.4 0.9 0.32 0.75 1.3 0 0.8 0.9 0 0.95 0.9 0 0.95 2.0 0.65 2.0 0.65
pair_coeff * * oxdna/stk     seqav 0.1 1.3448 2.6568 6.0 0.4 0.9 0.32 0.75 1.3 0 0.8 0.9 0 0.95 0.9 0 0.95 2.0 0.65 2.0 0.65
pair_coeff * * oxdna/hbond   seqav 0.0   8.0 0.4 0.75 0.34 0.7 1.5 0 0.7 1.5 0 0.7 1.5 0 0.7 0.46 3.141592653589793 0.7 4.0 1.5707963267948966 0.45 4.0 1.5707963267948966 0.45
pair_coeff 1 4 oxdna/hbond   seqav 1.077 8.0 0.4 0.75 0.34 0.7 1.5 0 0.7 1.5 0 0.7 1.5 0 0.7 0.46 3.141592653589793 0.7 4.0 1.5707963267948966 0.45 4.0 1.5707963267948966 0.45
pair_coeff 2 3 oxdna/hbond   seqav 1.077 8.0 0.4 0.75 0.34 0.7 1.5 0 0.7 1.5 0 0.7 1.5 0 0.7 0.46 3.141592653589793 0.7 4.0 1.5707963267948966 0.45 4.0 1.5707963267948966 0.45
pair_coeff * * oxdna/xstk    47.5 0.575 0.675 0.495 0.655 2.25 0.791592653589793 0.58 1.7 1.0 0.68 1.7 1.0 0.68 1.5 0 0.65 1.7 0.875 0.68 1.7 0.875 0.68
pair_coeff * * oxdna/coaxstk 46.0 0.4 0.6 0.22 0.58 2.0 2.541592653589793 0.65 1.3 0 0.8 0.9 0 0.95 0.9 0 0.95 2.0 -0.65 2.0 -0.65

# NVE ensemble
fix 1 all nve/dot
#fix 1 all nve/dotc/langevin ${T} ${T} 0.03 457145 angmom 10
#fix 1 all nve/asphere
#fix 2 all langevin ${T} ${T} 0.03 457145 angmom 10

timestep 1e-5

#comm_style tiled
#fix 3 all balance 10000 1.1 rcb

#compute mol all chunk/atom molecule
#compute mychunk all vcm/chunk mol
#fix 4 all ave/time 10000 1 10000 c_mychunk[1] c_mychunk[2] c_mychunk[3] file vcm.txt mode vector

#dump pos all xyz ${ofreq} traj.${number}.xyz

#compute quat all property/atom quatw quati quatj quatk
#dump quat all custom ${ofreq} quat.${number}.txt id c_quat[1] c_quat[2] c_quat[3] c_quat[4]
#dump_modify quat sort id
#dump_modify quat format line "%d  %13.6le  %13.6le  %13.6le  %13.6le"

compute erot all erotate/asphere
compute ekin all ke
compute epot all pe
variable erot equal c_erot
variable ekin equal c_ekin
variable epot equal c_epot
variable etot equal c_erot+c_ekin+c_epot

#dump out all custom ${ofreq} out.${number}.txt id x y z vx vy vz fx fy fz tqx tqy tqz
#dump_modify out sort id
#dump_modify out format line "%d   %13.6le %13.6le %13.6le  %13.6le %13.6le %13.6le  %13.6le %13.6le %13.6le  %13.6le %13.6le %13.6le"
thermo_style custom step temp press v_ekin v_erot v_epot v_etot
thermo 100
run 1000
Neighbor list info ...
  update every 1 steps, delay 0 steps, check yes
  max neighbors/atom: 2000, page size: 100000
  master list distance cutoff = 1.9560004
  ghost atom cutoff = 1.9560004
  binsize = 0.97800022, bins = 41 41 41
  5 neighbor lists, perpetual/occasional/extra = 5 0 0
  (1) pair oxdna/excv, perpetual
      attributes: half, newton off
      pair build: half/bin/newtoff
      stencil: half/bin/3d/newtoff
      bin: standard
  (2) pair oxdna/stk, perpetual, copy from (1)
      attributes: half, newton off
      pair build: copy
      stencil: none
      bin: none
  (3) pair oxdna/hbond, perpetual, copy from (1)
      attributes: half, newton off
      pair build: copy
      stencil: none
      bin: none
  (4) pair oxdna/xstk, perpetual, copy from (1)
      attributes: half, newton off
      pair build: copy
      stencil: none
      bin: none
  (5) pair oxdna/coaxstk, perpetual, copy from (1)
      attributes: half, newton off
      pair build: copy
      stencil: none
      bin: none
WARNING: Communication cutoff 1.9560004385408667 is shorter than a bond length based estimate of 2.12875. This may lead to errors. (src/comm.cpp:680)
Per MPI rank memory allocation (min/avg/max) = 7.403 | 7.46 | 7.518 Mbytes
Step Temp Press v_ekin v_erot v_epot v_etot 
       0            0 2.5836586e-06            0            0   -14.642433   -14.642433 
     100 8.427352e-07 2.5844816e-06 1.1376925e-05 4.1423125e-05   -14.642486   -14.642433 
     200 3.3706527e-06 2.5869506e-06 4.5503812e-05 0.00016568309   -14.642644   -14.642433 
     300 7.5828883e-06 2.5910646e-06 0.00010236899 0.00037275169   -14.642908   -14.642433 
     400 1.3478002e-05 2.5968224e-06 0.00018195303 0.00066258189   -14.643278   -14.642433 
     500 2.1053978e-05 2.604222e-06 0.0002842287 0.0010351079   -14.643753   -14.642433 
     600 3.0308227e-05 2.6132613e-06 0.00040916106 0.0014902451   -14.644333   -14.642433 
     700 4.1237585e-05 2.6239372e-06 0.00055670739 0.0020278902   -14.645018   -14.642433 
     800 5.3838315e-05 2.6362463e-06 0.00072681725 0.0026479212   -14.645808   -14.642433 
     900 6.8106109e-05 2.6501847e-06 0.00091943247 0.0033501974   -14.646703   -14.642433 
    1000 8.403609e-05 2.6657478e-06 0.0011344872 0.0041345595   -14.647702   -14.642433 
Loop time of 0.349113 on 8 procs for 1000 steps with 10 atoms

Performance: 2474.842 tau/day, 2864.401 timesteps/s
16.0% CPU use with 8 MPI tasks x 1 OpenMP threads

MPI task timing breakdown:
Section |  min time  |  avg time  |  max time  |%varavg| %total
---------------------------------------------------------------
Pair    | 0.00097835 | 0.0048812  | 0.008681   |   4.5 |  1.40
Bond    | 9.9507e-05 | 0.00020566 | 0.00034074 |   0.0 |  0.06
Neigh   | 0          | 0          | 0          |   0.0 |  0.00
Comm    | 0.10621    | 0.17205    | 0.24312    |  13.5 | 49.28
Output  | 0.0066099  | 0.0074429  | 0.0085171  |   0.6 |  2.13
Modify  | 0.00016296 | 0.0012018  | 0.0058654  |   5.2 |  0.34
Other   |            | 0.1633     |            |       | 46.79

Nlocal:    1.25 ave 3.0 max 0.0 min
Histogram: 3 0 0 1 0 0 3 0 0 1
Nghost:    8.75 ave 10.0 max 7.0 min
Histogram: 1 0 0 3 0 0 1 0 0 3
Neighs:    10.5 ave 24.0 max 0.0 min
Histogram: 3 0 0 1 0 0 0 3 0 1

Total # of neighbors = 84
Ave neighs/atom = 8.4
Ave special neighs/atom = 1.6
Neighbor list builds = 0
Dangerous builds = 0

#write_restart config.${number}.*
Total wall time: 0:00:00
