LAMMPS (4 Jan 2019)
# This example demonstrates the use of various fix qeq variants with
#   that defines and uses charges, in this case pair_style buck/coul/long

units           metal
atom_style      charge

read_data 	data.aC
  orthogonal box = (0 0 0) to (25.1583 25.1583 28.0203)
  2 by 2 by 2 MPI processor grid
  reading atoms ...
  1200 atoms

pair_style 	buck/coul/long 12.0
pair_coeff 	2 2 1388.77 .3623188 175.0
pair_coeff  	1 2 18003   .2052124  133.5381
pair_coeff 	1 1 0 .1 0
kspace_style  	ewald 1e-6

neighbor        1.0 bin
neigh_modify    delay 0 every 1 check yes

group    	type1 type 1
400 atoms in group type1
compute   	charge1 type1 property/atom q
compute   	q1 type1 reduce ave c_charge1
group    	type2 type 2
800 atoms in group type2
compute   	charge2 type2 property/atom q
compute   	q2 type2 reduce ave c_charge2
variable   	qtot equal count(type1)*c_q1+count(type2)*c_q2

thermo_style  	custom step pe c_q1 c_q2 v_qtot
thermo 		1

timestep 	0.0001

velocity  	all create 300.0 1281937
fix  		1 all nve

#fix             2 all qeq/point    1 10 1.0e-6 100 param.qeq2
#fix             2 all qeq/shielded 1 10 1.0e-6 100 param.qeq2
#fix             2 all qeq/slater   1 10 1.0e-6 100 param.qeq2
fix             2 all qeq/dynamic  1 10 1.0e-2 100 param.qeq2

run  		10
Ewald initialization ...
  using 12-bit tables for long-range coulomb (../kspace.cpp:321)
  G vector (1/distance) = 0.305064
  estimated absolute RMS force accuracy = 2.07629e-05
  estimated relative force accuracy = 1.44191e-06
  KSpace vectors: actual max1d max3d = 1696 10 4630
                  kxmax kymax kzmax  = 9 9 10
Neighbor list info ...
  update every 1 steps, delay 0 steps, check yes
  max neighbors/atom: 2000, page size: 100000
  master list distance cutoff = 13
  ghost atom cutoff = 13
  binsize = 6.5, bins = 4 4 5
  2 neighbor lists, perpetual/occasional/extra = 2 0 0
  (1) pair buck/coul/long, perpetual
      attributes: half, newton on
      pair build: half/bin/atomonly/newton
      stencil: half/bin/3d/newton
      bin: standard
  (2) fix qeq/dynamic, perpetual, copy from (1)
      attributes: half, newton on
      pair build: copy
      stencil: none
      bin: none
Per MPI rank memory allocation (min/avg/max) = 21.7 | 21.72 | 21.75 Mbytes
Step PotEng c_q1 c_q2 v_qtot 
       0   -3427.2912   0.85155361   -0.4257768 1.1368684e-13 
       1   -3427.2952   0.85155361   -0.4257768 1.1368684e-13 
       2   -3427.3702   0.85155361   -0.4257768 1.1368684e-13 
       3   -3427.5147   0.85155361   -0.4257768 1.1368684e-13 
       4   -3427.7293   0.85155361   -0.4257768 1.1368684e-13 
       5   -3428.0139   0.85155361   -0.4257768 1.1368684e-13 
       6   -3437.0197   0.85284334  -0.42642167 1.1368684e-13 
       7   -3439.6557   0.85317232  -0.42658616            0 
       8   -3442.0863   0.85345972  -0.42672986 1.7053026e-13 
       9   -3446.9116   0.85409203  -0.42704601 -5.6843419e-14 
      10   -3447.5546   0.85409203  -0.42704601 -5.6843419e-14 
Loop time of 0.064547 on 8 procs for 10 steps with 1200 atoms

Performance: 1.339 ns/day, 17.930 hours/ns, 154.926 timesteps/s
100.0% CPU use with 8 MPI tasks x no OpenMP threads

MPI task timing breakdown:
Section |  min time  |  avg time  |  max time  |%varavg| %total
---------------------------------------------------------------
Pair    | 0.02737    | 0.028461   | 0.029841   |   0.5 | 44.09
Kspace  | 0.021029   | 0.022625   | 0.023986   |   0.7 | 35.05
Neigh   | 0          | 0          | 0          |   0.0 |  0.00
Comm    | 0.0018154  | 0.0029112  | 0.0037414  |   1.3 |  4.51
Output  | 0.00039933 | 0.00041548 | 0.00046487 |   0.0 |  0.64
Modify  | 0.01001    | 0.010031   | 0.010056   |   0.0 | 15.54
Other   |            | 0.0001036  |            |       |  0.16

Nlocal:    150 ave 150 max 150 min
Histogram: 8 0 0 0 0 0 0 0 0 0
Nghost:    3731.25 ave 3739 max 3724 min
Histogram: 2 0 0 0 4 0 0 0 0 2
Neighs:    45950 ave 47771 max 44111 min
Histogram: 2 0 0 2 0 0 2 0 0 2

Total # of neighbors = 367600
Ave neighs/atom = 306.333
Neighbor list builds = 0
Dangerous builds = 0
Total wall time: 0:00:00
