LAMMPS (18 Jun 2019)
# sample surface deposition script for atoms

units		lj
atom_style      atomic
boundary        p p f

lattice		fcc 1.0
Lattice spacing in x,y,z = 1.5874 1.5874 1.5874
region          box block 0 5 0 5 0 10
create_box      2 box
Created orthogonal box = (0 0 0) to (7.93701 7.93701 15.874)
  1 by 2 by 4 MPI processor grid

region		substrate block INF INF INF INF INF 3
create_atoms	1 region substrate
Created 350 atoms
  create_atoms CPU = 0.000494367 secs

pair_style	lj/cut 2.5
pair_coeff	* * 1.0 1.0
pair_coeff	1 2 1.0 1.0 5.0
mass		* 1.0

neigh_modify	delay 0

group		addatoms type 2
0 atoms in group addatoms
region          mobile block 0 5 0 5 2 INF
group		mobile region mobile
150 atoms in group mobile

compute		add addatoms temp
compute_modify	add dynamic/dof yes extra/dof 0

fix		1 addatoms nve
fix		2 mobile langevin 1.0 1.0 0.1 587283
fix		3 mobile nve

region          slab block 0 5 0 5 8 9
fix		4 addatoms deposit 100 2 100 12345 region slab near 1.0                 vz -1.0 -1.0
fix		5 addatoms wall/reflect zhi EDGE

thermo_style	custom step atoms temp epair etotal press
thermo          100
thermo_modify	temp add
WARNING: Temperature for thermo pressure is not for group all (src/thermo.cpp:489)

#dump		1 all atom 50 dump.deposit.atom

#dump		2 all image 50 image.*.jpg type type #		axes yes 0.8 0.02 view 80 -30
#dump_modify	2 pad 5

#dump		3 all movie 50 movie.mpg type type #		axes yes 0.8 0.02 view 80 -30
#dump_modify	3 pad 5

run             10000
Neighbor list info ...
  update every 1 steps, delay 0 steps, check yes
  max neighbors/atom: 2000, page size: 100000
  master list distance cutoff = 5.3
  ghost atom cutoff = 5.3
  binsize = 2.65, bins = 3 3 6
  1 neighbor lists, perpetual/occasional/extra = 1 0 0
  (1) pair lj/cut, perpetual
      attributes: half, newton on
      pair build: half/bin/atomonly/newton
      stencil: half/bin/3d/newton
      bin: standard
Per MPI rank memory allocation (min/avg/max) = 0.447 | 2.38 | 3.176 Mbytes
Step Atoms Temp E_pair TotEng Press
       0      350            0   -6.9215833   -6.9215833   -1.0052629
     100      351   0.83994737   -6.3538772   -6.3502877  -0.16278679
     200      352   0.83994737   -6.2723949   -6.2652363  -0.33558022
     300      353   0.83994737   -6.1543626   -6.1436551  -0.44289455
     400      354   0.83994737   -6.0221413   -6.0079049  -0.42610298
     500      355   0.84002441   -5.9805859   -5.9628389  -0.45571157
     600      356   0.84096452   -5.8993116   -5.8780513  -0.46944321
     700      357   0.84649539   -5.8178916   -5.7929946  -0.35302833
     800      358   0.88576361   -5.8311224    -5.801432  -0.57707984
     900      359    1.1541137   -5.8173399   -5.7739401  -0.44830538
    1000      360   0.89386837   -5.7843199   -5.7470754  -0.55532932
    1100      361   0.91277185   -5.7667058   -5.7249863  -0.55729566
    1200      362    1.0413132   -5.7175322   -5.6657542  -0.44605276
    1300      363    1.1436295   -5.6351888   -5.5737541  -0.51705926
    1400      364    1.0675517   -5.6134549   -5.5518653  -0.49573774
    1500      365    0.9771179   -5.5752462   -5.5150129  -0.51032894
    1600      366    1.2074899   -5.5572583   -5.4780786  -0.50624577
    1700      367    1.2648869   -5.5282669   -5.4403796  -0.51977826
    1800      368   0.99483157   -5.5691999   -5.4962096   -0.5382282
    1900      369   0.74260176   -5.5201797   -5.4628243  -0.56046802
    2000      370    0.8007779   -5.5190744   -5.4541464  -0.52406485
    2100      371    0.9734122   -5.5183002    -5.435652  -0.61733535
    2200      372   0.82240655   -5.5015545   -5.4285991  -0.62101109
    2300      373    1.0464482   -5.5302848   -5.4334954  -0.58189748
    2400      374    1.0879919   -5.5485274   -5.4438009   -0.5899766
    2500      375   0.93519641   -5.5346175   -5.4410978  -0.51822192
    2600      376   0.94034352    -5.467666   -5.3701303   -0.4653321
    2700      377   0.86821969   -5.4841121   -5.3908418   -0.6213464
    2800      378    1.2137751   -5.4190156   -5.2841517  -0.56327203
    2900      379    1.1106323   -5.4334001   -5.3059265  -0.72216702
    3000      380   0.94119644   -5.4217606   -5.3103031  -0.63727018
    3100      381    1.0491921   -5.4492946   -5.3212436  -0.58693692
    3200      382    1.0852093    -5.361365   -5.2250037  -0.44166547
    3300      383   0.96840932   -5.4129581   -5.2877982  -0.49924648
    3400      384   0.97572374    -5.460973   -5.3313846  -0.60159296
    3500      385   0.96297211   -5.5291633   -5.3978489  -0.71299203
    3600      386    1.1231036   -5.4779766   -5.3208585  -0.55631127
    3700      387   0.84056576    -5.534314   -5.4137677  -0.68121164
    3800      388   0.85710617   -5.4788708   -5.3529558  -0.65944911
    3900      389    1.0333299   -5.4409909   -5.2855929   -0.5522256
    4000      390    1.1203061   -5.4170826   -5.2447278  -0.52723709
    4100      391    1.1104082   -5.4074879   -5.2328329  -0.56068221
    4200      392     1.197897   -5.3747729   -5.1822538  -0.63449505
    4300      393    1.0488659   -5.3401405   -5.1679984  -0.55354958
    4400      394     1.080185    -5.419226   -5.2382813  -0.65723971
    4500      395     1.007281   -5.3405193    -5.168389  -0.62336817
    4600      396   0.91743261   -5.2979106   -5.1380549  -0.68128482
    4700      397   0.95081963   -5.2896785   -5.1208301  -0.64923599
    4800      398   0.96027156   -5.3139211   -5.1402037  -0.76334387
    4900      399    1.0671107   -5.2231893   -5.0266163  -0.53352048
    5000      400    1.0760264   -5.2606149     -5.05886  -0.53202108
    5100      401    1.0232042   -5.2821668    -5.086967  -0.47757906
    5200      402   0.98606071   -5.4309707   -5.2396454  -0.63790366
    5300      403    1.1652298   -5.4159852   -5.1861197  -0.71456687
    5400      404    1.0445265   -5.3660731   -5.1566507   -0.6093073
    5500      405    1.0840272   -5.3675398   -5.1467195  -0.57654796
    5600      406    1.1366234   -5.3941305    -5.158967  -0.62251809
    5700      407    1.2022731   -5.3124332   -5.0598672  -0.56462283
    5800      408   0.92092016   -5.3275991   -5.1312264  -0.55506347
    5900      409   0.91423423   -5.3275819   -5.1297586  -0.46784275
    6000      410   0.87486633   -5.3151068    -5.123063  -0.58495136
    6100      411    1.2853143   -5.3300351   -5.0438885   -0.5814596
    6200      412     1.104822   -5.2950808   -5.0456914  -0.48700662
    6300      413   0.99458675   -5.3262095   -5.0986346  -0.56819431
    6400      414    1.1228745   -5.2879744   -5.0275978  -0.56980462
    6500      415    1.1131848   -5.2603381   -4.9988068  -0.54240356
    6600      416    1.1385206   -5.2217365   -4.9507905  -0.48127847
    6700      417    1.2531667    -5.176914   -4.8748918  -0.49341753
    6800      418    1.0368228   -5.2083843   -4.9553797  -0.67106311
    6900      419    1.2742073   -5.1843139   -4.8695634  -0.55001119
    7000      420    1.1115837   -5.1838007   -4.9059048  -0.61681805
    7100      421    1.0886803   -5.1394917   -4.8640892  -0.57349433
    7200      422     1.020277    -5.160505   -4.8993915  -0.69566698
    7300      423    1.0996226   -5.1454478   -4.8607937  -0.49111918
    7400      424   0.97713359   -5.1482695   -4.8924633  -0.63340975
    7500      425    1.0492133   -5.1321653   -4.8544324  -0.76121909
    7600      426    1.1179701   -5.1028802   -4.8037051  -0.56898334
    7700      427    1.0379436   -5.0723121   -4.7915568  -0.55357657
    7800      428   0.92660125   -5.0797696   -4.8264697  -0.70489632
    7900      429    1.1676102   -5.0765165   -4.7539948  -0.60661753
    8000      430    1.0994774   -5.0274079    -4.720577  -0.57304635
    8100      431    1.0179737   -5.0496112   -4.7626418  -0.72516279
    8200      432    1.0495506   -5.0646132   -4.7657828  -0.66599765
    8300      433    1.1635013   -5.0396911   -4.7051509   -0.5673769
    8400      434   0.99785098   -5.0453441   -4.7556454  -0.70689685
    8500      435    0.9638758   -5.0305268   -4.7480115  -0.63983405
    8600      436    1.0905165   -4.9841344   -4.6614816  -0.54930817
    8700      437    1.0876233    -5.019043   -4.6942494  -0.68662157
    8800      438    1.2139966   -5.0910045   -4.7251425  -0.84335181
    8900      439   0.98117068   -5.0262316   -4.7278573  -0.47407997
    9000      440     1.044377   -5.0871794   -4.7667456  -0.59651634
    9100      441    1.1115857   -5.0845492   -4.7404869  -0.55210175
    9200      442    1.0191175   -5.0813455   -4.7631595  -0.62608349
    9300      443   0.88465542   -5.1004935   -4.8219169  -0.63286268
    9400      444    1.0802574   -5.1172301   -4.7741754  -0.61433674
    9500      445   0.92485504    -5.055028   -4.7588666  -0.50082417
    9600      446    1.0156697   -5.0881463   -4.7602171  -0.56462897
    9700      447    1.0344794   -5.1129718   -4.7762453  -0.57684763
    9800      448   0.93720233   -5.1530919   -4.8455724  -0.69982815
    9900      449    1.0285609   -5.0736083   -4.7334273  -0.45186451
   10000      450    1.1433822   -5.1313313   -4.7502039  -0.55332745
Loop time of 2.9362 on 8 procs for 10000 steps with 450 atoms

Performance: 1471290.820 tau/day, 3405.766 timesteps/s
67.4% CPU use with 8 MPI tasks x no OpenMP threads

MPI task timing breakdown:
Section |  min time  |  avg time  |  max time  |%varavg| %total
---------------------------------------------------------------
Pair    | 0.0016871  | 0.38476    | 1.2449     |  70.1 | 13.10
Neigh   | 0.0061337  | 0.21406    | 0.82005    |  59.3 |  7.29
Comm    | 0.77076    | 2.0753     | 2.5894     |  40.7 | 70.68
Output  | 0.0028348  | 0.0047132  | 0.0078005  |   2.7 |  0.16
Modify  | 0.0060067  | 0.021721   | 0.05239    |  11.4 |  0.74
Other   |            | 0.2356     |            |       |  8.03

Nlocal:    56.25 ave 126 max 4 min
Histogram: 3 1 0 0 0 1 1 0 0 2
Nghost:    1236.38 ave 1815 max 394 min
Histogram: 2 0 0 0 2 0 0 0 0 4
Neighs:    3577.25 ave 8177 max 6 min
Histogram: 4 0 0 0 0 0 1 1 0 2

Total # of neighbors = 28618
Ave neighs/atom = 63.5956
Neighbor list builds = 1143
Dangerous builds = 0
Total wall time: 0:00:02
