LAMMPS (4 Jan 2019)
# sample surface deposition script for molecules

units		lj
atom_style      bond
boundary        p p f

lattice		fcc 1.0
Lattice spacing in x,y,z = 1.5874 1.5874 1.5874
region          box block 0 5 0 5 0 10
create_box      3 box bond/types 1 extra/bond/per/atom 1
Created orthogonal box = (0 0 0) to (7.93701 7.93701 15.874)
  1 by 2 by 4 MPI processor grid

region		substrate block INF INF INF INF INF 3
create_atoms	1 region substrate
Created 350 atoms
  Time spent = 0.00153027 secs

pair_style	lj/cut 2.5
pair_coeff	* * 1.0 1.0
pair_coeff	1 2 1.0 1.0 5.0
mass		* 1.0

bond_style	harmonic
bond_coeff      1 5.0 1.0

neigh_modify	delay 0

group		addatoms type 2
0 atoms in group addatoms
region          mobile block 0 5 0 5 2 INF
group		mobile region mobile
150 atoms in group mobile

compute		add addatoms temp
compute_modify	add dynamic/dof yes extra/dof 0

fix		1 addatoms nve
fix		2 mobile langevin 0.1 0.1 0.1 587283
fix		3 mobile nve

molecule        dimer molecule.dimer
Read molecule dimer:
  2 atoms with max type 3
  1 bonds with max type 1
  0 angles with max type 0
  0 dihedrals with max type 0
  0 impropers with max type 0
region          slab block 0 5 0 5 8 9
fix		4 addatoms deposit 100 0 100 12345 region slab near 1.0                 mol dimer vz -1.0 -1.0
fix		5 addatoms wall/reflect zhi EDGE

thermo_style	custom step atoms temp epair etotal press
thermo          100
thermo_modify	temp add lost/bond ignore lost warn
WARNING: Temperature for thermo pressure is not for group all (../thermo.cpp:488)

#dump		1 all atom 50 dump.deposit.atom

#dump		2 all image 50 image.*.jpg type type #		axes yes 0.8 0.02 view 80 -30
#dump_modify	2 pad 5

#dump		3 all movie 50 movie.mpg type type #		axes yes 0.8 0.02 view 80 -30
#dump_modify	3 pad 5

run             10000
Neighbor list info ...
  update every 1 steps, delay 0 steps, check yes
  max neighbors/atom: 2000, page size: 100000
  master list distance cutoff = 5.3
  ghost atom cutoff = 5.3
  binsize = 2.65, bins = 3 3 6
  1 neighbor lists, perpetual/occasional/extra = 1 0 0
  (1) pair lj/cut, perpetual
      attributes: half, newton on
      pair build: half/bin/newton
      stencil: half/bin/3d/newton
      bin: standard
Per MPI rank memory allocation (min/avg/max) = 0.4484 | 3.146 | 4.199 Mbytes
Step Atoms Temp E_pair TotEng Press 
       0      350            0   -6.9215833   -6.9215833   -1.0052629 
     100      352   0.83994737   -6.8852191   -6.8780604  -0.72575301 
     200      354   0.83994737   -6.8544338   -6.8401974  -0.68706628 
     300      356   0.84169616   -6.8247356   -6.8034492  -0.65411958 
     400      358   0.84705847   -6.7834188   -6.7550099  -0.68900202 
     500      360   0.87562973   -6.7469742    -6.710435  -0.69790027 
     600      362   0.89546097   -6.7054861   -6.6605704  -0.66540405 
     700      364   0.86923952   -6.6706464   -6.6197206  -0.69190435 
     800      366   0.93006355   -6.6432193    -6.580102  -0.67508939 
     900      368    1.0018013   -6.6175521   -6.5420476  -0.65659071 
    1000      370    1.0068436   -6.5763438   -6.4932932  -0.69543785 
    1100      372   0.98129087   -6.5633845    -6.473018  -0.67088228 
    1200      374    1.0386253   -6.5909404   -6.4842739  -0.64475078 
    1300      376   0.81809823   -6.5924983   -6.5022204  -0.64293737 
    1400      378   0.71935426   -6.5800236   -6.4920668   -0.6437081 
    1500      380    0.7408958   -6.5669682   -6.4730399  -0.67641012 
    1600      382   0.66214964   -6.5681599     -6.48276  -0.62591885 
    1700      384   0.69179092   -6.5694808   -6.4757227  -0.63044594 
    1800      386   0.68167886   -6.5574031   -6.4581237  -0.62036564 
    1900      388   0.57930874   -6.5650171   -6.4714192  -0.65756848 
    2000      390   0.51597248   -6.5492229   -6.4629006  -0.71153582 
    2100      392   0.54700431   -6.5420325   -6.4398705  -0.64949988 
    2200      394   0.49954878   -6.5365786    -6.439156  -0.65975866 
    2300      396   0.59667463   -6.5323055   -6.4194202  -0.72916888 
    2400      398    0.5816759   -6.5279757   -6.4082843   -0.6783039 
    2500      400   0.71756411   -6.5621936   -6.4135468  -0.68513304 
    2600      402   0.62577825   -6.5874508   -6.4446282   -0.6107802 
    2700      404   0.52585511   -6.6137097   -6.4850407  -0.66630064 
    2800      406    0.4681814   -6.6202875   -6.5026568  -0.76581626 
    2900      408   0.50228897   -6.6371754   -6.5142901  -0.68648051 
    3000      410   0.50218953   -6.6569164   -6.5250448  -0.66517665 
    3100      412   0.46828149   -6.6704876   -6.5344011  -0.71550317 
    3200      414   0.38478156   -6.6790731   -6.5536059  -0.70246939 
    3300      416    0.4510187   -6.6777153   -6.5308518  -0.70313963 
    3400      418   0.42568608   -6.6907097   -6.5573707  -0.74254607 
    3500      420   0.34531466   -6.6880478   -6.5642932  -0.68901985 
    3600      422   0.37276158   -6.6971278   -6.5677765  -0.66646052 
    3700      424   0.37545938   -6.7057794   -6.5724975   -0.6962861 
    3800      426    0.3845923    -6.727178   -6.5833547  -0.72008341 
    3900      428   0.37616277   -6.7261085   -6.5838985  -0.75947798 
    4000      430   0.46383979   -6.7415517   -6.5722831  -0.76452825 
    4100      432   0.37984306   -6.7331377   -6.5752945  -0.68339319 
    4200      434   0.37587994   -6.7588048   -6.5964514  -0.70962253 
    4300      436   0.35892528   -6.7535652   -6.5951083  -0.72440565 
    4400      438   0.34523872   -6.7586907   -6.6045354  -0.70527763 
    4500      440   0.33695531    -6.775807   -6.6136427  -0.68646318 
    4600      442   0.34042882   -6.7735206   -6.6103219  -0.72084994 
    4700      444   0.35773684   -6.7769387   -6.6034723  -0.73462093 
    4800      446   0.34072026   -6.7603283   -6.5926109  -0.69263315 
    4900      448   0.35027355   -6.7718942   -6.6023329  -0.69427332 
    5000      450   0.30506099   -6.7747543    -6.603692  -0.79052137 
    5100      452    0.3547743   -6.7832599   -6.5986504   -0.7531642 
    5200      454   0.33802785   -6.7798748   -6.5946205  -0.75797966 
    5300      456   0.33367336    -6.779522   -6.5936262  -0.78992368 
    5400      458   0.35615805   -6.8104962   -6.6029019  -0.70762083 
    5500      460   0.34954717   -6.8026634   -6.6046687   -0.7181313 
    5600      462   0.30152566   -6.7882596   -6.6010831  -0.75542077 
    5700      464   0.34530185   -6.8310539   -6.6160515  -0.76228676 
    5800      466    0.3939491   -6.8299205   -6.6034397  -0.71332815 
    5900      468   0.34610468   -6.8404859   -6.6225415  -0.71116681 
    6000      470   0.37386893   -6.8804439   -6.6448968   -0.6757072 
    6100      472   0.27968055   -6.8564167   -6.6623474   -0.7834125 
    6200      474   0.29432829   -6.8852297   -6.6645236  -0.79593156 
    6300      476   0.29581659   -6.8871434   -6.6711746  -0.72822028 
    6400      478   0.28655185   -6.8782706   -6.6589092  -0.72504464 
    6500      480   0.27686842   -6.8796822   -6.6559837  -0.69316169 
    6600      482   0.28650713   -6.8777533   -6.6444296  -0.85960562 
    6700      484   0.36550267   -6.8848235    -6.630184   -0.7718031 
    6800      486   0.31540155   -6.8926266   -6.6464109  -0.67638992 
    6900      488   0.28595505   -6.8853726   -6.6433397   -0.8124612 
    7000      490   0.31445681   -6.9124451   -6.6529212  -0.74086722 
    7100      492   0.31555147   -6.9118115    -6.649355   -0.7613127 
    7200      494   0.31925954   -6.9110733   -6.6441023  -0.75878109 
    7300      496   0.28366956   -6.8982842   -6.6509039  -0.75615912 
    7400      498   0.28845195   -6.9132031   -6.6586844   -0.8474799 
    7500      500   0.32669756   -6.9275036     -6.65406  -0.80816829 
    7600      502   0.30618008   -6.9186351   -6.6642426   -0.8417254 
    7700      504   0.28649139   -6.9250112   -6.6714366  -0.85748628 
    7800      506   0.36327019    -6.963957   -6.6723519  -0.75629807 
    7900      508   0.33094756   -6.9604358   -6.6913159  -0.79768771 
    8000      510    0.2881988   -6.9540632   -6.7024551  -0.85261482 
    8100      512   0.27098168   -6.9553794   -6.7115781  -0.77858431 
    8200      514   0.29664239   -6.9719643   -6.7127208  -0.83874384 
    8300      516   0.33477096   -6.9823127   -6.6987435  -0.78931988 
    8400      518   0.28676759   -6.9818204   -6.7134381  -0.82174616 
    8500      520   0.28813013   -6.9985077   -6.7215686  -0.87678928 
    8600      522   0.30630926   -7.0490767   -6.7400708  -0.87280317 
    8700      524   0.26409166   -7.0314726   -6.7526151  -0.73053874 
    8800      526   0.29505619   -7.0538615   -6.7457662  -0.85263169 
    8900      528    0.3371384   -7.0766374   -6.7499581  -0.91339907 
    9000      530   0.31438321   -7.0877609   -6.7615068  -0.75949332 
    9100      532   0.32544187   -7.1190089   -6.7746336   -0.8205603 
    9200      534   0.30897938   -7.1172969   -6.7755264   -0.8606419 
    9300      536   0.31998215   -7.1277512   -6.7779262  -0.87217583 
    9400      538   0.28402104   -7.1383003    -6.799242  -0.78246256 
    9500      540    0.2859901   -7.1371903   -6.7973031  -0.83833444 
    9600      542   0.29292202   -7.1375309   -6.7982694  -0.85763348 
    9700      544   0.26105388   -7.1337825   -6.8012783  -0.91360562 
    9800      546   0.26242688   -7.1371174   -6.7951527  -0.88083681 
    9900      548   0.28674869   -7.1701279   -6.8117965   -0.7479802 
   10000      550   0.27351013   -7.1806566    -6.822319  -0.75570853 
Loop time of 3.71655 on 8 procs for 10000 steps with 550 atoms

Performance: 1162367.517 tau/day, 2690.666 timesteps/s
98.7% CPU use with 8 MPI tasks x no OpenMP threads

MPI task timing breakdown:
Section |  min time  |  avg time  |  max time  |%varavg| %total
---------------------------------------------------------------
Pair    | 0.0010227  | 0.50554    | 1.4824     |  84.8 | 13.60
Bond    | 0.00072712 | 0.0022621  | 0.0059526  |   4.2 |  0.06
Neigh   | 0.0038857  | 0.25696    | 0.78179    |  61.6 |  6.91
Comm    | 1.3668     | 2.6003     | 3.2113     |  45.2 | 69.96
Output  | 0.00264    | 0.0054767  | 0.0086892  |   3.2 |  0.15
Modify  | 0.0070488  | 0.026563   | 0.051779   |  11.9 |  0.71
Other   |            | 0.3195     |            |       |  8.60

Nlocal:    68.75 ave 152 max 0 min
Histogram: 4 0 0 0 0 0 0 2 0 2
Nghost:    1506.62 ave 2158 max 346 min
Histogram: 2 0 0 0 0 0 2 0 0 4
Neighs:    4855.88 ave 12395 max 0 min
Histogram: 4 0 0 0 0 2 0 0 0 2

Total # of neighbors = 38847
Ave neighs/atom = 70.6309
Ave special neighs/atom = 0.363636
Neighbor list builds = 874
Dangerous builds = 0
Total wall time: 0:00:03
