LAMMPS (4 Jan 2019)
# sample surface deposition script for atoms

units		lj
atom_style      atomic
boundary        p p f

lattice		fcc 1.0
Lattice spacing in x,y,z = 1.5874 1.5874 1.5874
region          box block 0 5 0 5 0 10
create_box      2 box
Created orthogonal box = (0 0 0) to (7.93701 7.93701 15.874)
  1 by 2 by 4 MPI processor grid

region		substrate block INF INF INF INF INF 3
create_atoms	1 region substrate
Created 350 atoms
  Time spent = 0.000667396 secs

pair_style	lj/cut 2.5
pair_coeff	* * 1.0 1.0
pair_coeff	1 2 1.0 1.0 5.0
mass		* 1.0

neigh_modify	delay 0

group		addatoms type 2
0 atoms in group addatoms
region          mobile block 0 5 0 5 2 INF
group		mobile region mobile
150 atoms in group mobile

compute		add addatoms temp
compute_modify	add dynamic/dof yes extra/dof 0

fix		1 addatoms nve
fix		2 mobile langevin 1.0 1.0 0.1 587283
fix		3 mobile nve

region          slab block 0 5 0 5 8 9
fix		4 addatoms deposit 100 2 100 12345 region slab near 1.0                 vz -1.0 -1.0
fix		5 addatoms wall/reflect zhi EDGE

thermo_style	custom step atoms temp epair etotal press
thermo          100
thermo_modify	temp add
WARNING: Temperature for thermo pressure is not for group all (../thermo.cpp:488)

#dump		1 all atom 50 dump.deposit.atom

#dump		2 all image 50 image.*.jpg type type #		axes yes 0.8 0.02 view 80 -30
#dump_modify	2 pad 5

#dump		3 all movie 50 movie.mpg type type #		axes yes 0.8 0.02 view 80 -30
#dump_modify	3 pad 5

run             10000
Neighbor list info ...
  update every 1 steps, delay 0 steps, check yes
  max neighbors/atom: 2000, page size: 100000
  master list distance cutoff = 5.3
  ghost atom cutoff = 5.3
  binsize = 2.65, bins = 3 3 6
  1 neighbor lists, perpetual/occasional/extra = 1 0 0
  (1) pair lj/cut, perpetual
      attributes: half, newton on
      pair build: half/bin/atomonly/newton
      stencil: half/bin/3d/newton
      bin: standard
Per MPI rank memory allocation (min/avg/max) = 0.447 | 2.38 | 3.176 Mbytes
Step Atoms Temp E_pair TotEng Press 
       0      350            0   -6.9215833   -6.9215833   -1.0052629 
     100      351   0.83994737   -6.3538772   -6.3502877  -0.16278679 
     200      352   0.83994737   -6.2723949   -6.2652363  -0.33558022 
     300      353   0.84063802   -6.1544833    -6.143767  -0.44297675 
     400      354   0.84248131   -6.0222958   -6.0080164   -0.4262007 
     500      355    0.8468868   -5.9808387   -5.9629468  -0.45585198 
     600      356   0.86686017   -5.9000597   -5.8781447  -0.46976845 
     700      357   0.93519593   -5.8210158     -5.79351  -0.35351819 
     800      358   0.87426462   -5.8307256   -5.8014206  -0.57000269 
     900      359   0.93885637   -5.7579734   -5.7226682  -0.34633348 
    1000      360    1.2900095   -5.6953414    -5.641591  -0.38310363 
    1100      361    1.2077635   -5.6529462   -5.5977437  -0.48887133 
    1200      362    1.2464997   -5.6818011   -5.6198204  -0.53441427 
    1300      363   0.90935199   -5.6951215    -5.646272  -0.70779499 
    1400      364   0.92502554   -5.6279984   -5.5746315  -0.54029651 
    1500      365   0.91575135   -5.6392021   -5.5827517  -0.58343333 
    1600      366    1.4796831   -5.6138741   -5.5168457  -0.42796723 
    1700      367   0.76067384   -5.6103158   -5.5574624  -0.49707147 
    1800      368   0.98035368   -5.6504078   -5.5784797  -0.53929766 
    1900      369   0.84526201   -5.5421925    -5.476908  -0.47164344 
    2000      370   0.76271617   -5.5600066   -5.4981648  -0.48746455 
    2100      371    1.0085546   -5.5969602   -5.5113282  -0.61139777 
    2200      372   0.85615944   -5.5452205   -5.4692709  -0.60936169 
    2300      373    0.9239039   -5.5124335   -5.4269785  -0.47278988 
    2400      374    1.1333702   -5.5030516   -5.3939571  -0.40938606 
    2500      375    1.1571456   -5.5599712   -5.4442566  -0.49800445 
    2600      376    1.0748168   -5.5787381   -5.4672545   -0.5983561 
    2700      377    1.4188946   -5.5170783   -5.3646506  -0.54394077 
    2800      378    1.0607538   -5.5237122   -5.4058506  -0.54924786 
    2900      379    1.0432791   -5.4392462   -5.3195031  -0.58742153 
    3000      380    1.2224475   -5.4314922   -5.2867287  -0.55166049 
    3100      381    1.1208103    -5.490247   -5.3534552  -0.57595497 
    3200      382     1.342853   -5.5428459   -5.3741104  -0.62372451 
    3300      383    1.0738361   -5.5074885   -5.3687029  -0.67598733 
    3400      384    1.0846161   -5.4686748   -5.3246242  -0.61663014 
    3500      385    1.0469221   -5.4313401    -5.288578   -0.5256529 
    3600      386    1.0804072   -5.4473086   -5.2961636  -0.52446714 
    3700      387    1.2208603   -5.4711113   -5.2960267  -0.49750701 
    3800      388     1.037197   -5.4174945   -5.2651228  -0.48975089 
    3900      389   0.90958635   -5.3346013   -5.1978126  -0.48199629 
    4000      390   0.92284301   -5.3520996   -5.2101238  -0.61773294 
    4100      391   0.87841123   -5.3419275   -5.2037631  -0.63511468 
    4200      392    1.2452364   -5.3529982    -5.152871  -0.54250955 
    4300      393    1.0183998   -5.3312759    -5.164134  -0.60739643 
    4400      394     1.146996   -5.3473109   -5.1551745  -0.62026754 
    4500      395   0.98959646   -5.2899336   -5.1208254  -0.61042036 
    4600      396   0.84201474   -5.3149376   -5.1682229  -0.61888083 
    4700      397    1.0368044   -5.3200564   -5.1359388  -0.73298128 
    4800      398   0.90559422    -5.292823   -5.1289969  -0.75480999 
    4900      399    1.0178306   -5.2475017   -5.0600066  -0.63496884 
    5000      400    1.0155071   -5.2499098   -5.0595022  -0.52501884 
    5100      401   0.97633157   -5.2768483   -5.0905905  -0.69123994 
    5200      402   0.90144221   -5.2990867     -5.12418  -0.66375481 
    5300      403   0.97125531   -5.2743502   -5.0827502  -0.62699035 
    5400      404    1.0567867   -5.2792152   -5.0673347  -0.64236336 
    5500      405    1.0956433    -5.248371   -5.0251844  -0.58002626 
    5600      406    1.1456216   -5.2833265   -5.0463013  -0.60634162 
    5700      407    1.0147628   -5.3006447   -5.0874697  -0.65005025 
    5800      408    1.0781319   -5.2458233   -5.0159275  -0.56695665 
    5900      409    1.0388692   -5.2845252   -5.0597333  -0.55611107 
    6000      410   0.91959585   -5.2702613   -5.0683988  -0.62040778 
    6100      411    1.2096633   -5.2789869   -5.0096823   -0.5090571 
    6200      412    1.0651912   -5.2331999   -4.9927562  -0.43674894 
    6300      413    1.0307925   -5.2295875   -4.9937282  -0.58708124 
    6400      414   0.96857985   -5.2359022    -5.011304  -0.54355968 
    6500      415    1.0941258    -5.214607   -4.9575533  -0.56388246 
    6600      416    1.1837492   -5.1812112   -4.8995016  -0.47687597 
    6700      417    1.0774575    -5.227109    -4.967434  -0.73193804 
    6800      418   0.96152051   -5.2274238   -4.9927944  -0.65429009 
    6900      419   0.93234359   -5.1994743   -4.9691699  -0.52547817 
    7000      420    1.0520912   -5.1870595   -4.9240367  -0.50209129 
    7100      421    1.0481079   -5.2201818   -4.9550428  -0.65808339 
    7200      422    1.0749651   -5.1901037   -4.9149942  -0.53232297 
    7300      423     1.114935   -5.2493034   -4.9606855  -0.63366161 
    7400      424    1.0008084   -5.2285171    -4.966513  -0.61886656 
    7500      425   0.94923923   -5.2124347   -4.9611655  -0.55723486 
    7600      426    1.0123437   -5.2053563   -4.9344474  -0.41616959 
    7700      427    1.1377173   -5.2814991   -4.9737559  -0.53604789 
    7800      428   0.99300188   -5.3118762   -5.0404247  -0.62131759 
    7900      429   0.95331523   -5.2778741   -5.0145458  -0.67716059 
    8000      430   0.96533654   -5.2556371   -4.9862408  -0.56557678 
    8100      431    1.0914847   -5.2799543    -4.972262  -0.56627179 
    8200      432    1.0534722   -5.2222426   -4.9222957  -0.54230933 
    8300      433   0.94296634   -5.2174115   -4.9462815  -0.58119864 
    8400      434      1.10024    -5.246033   -4.9266084  -0.53069107 
    8500      435    1.0308837    -5.224218   -4.9220624  -0.49338713 
    8600      436    1.0328285   -5.1565919   -4.8510073  -0.43204875 
    8700      437    1.1225754   -5.2208724   -4.8856411  -0.52233731 
    8800      438    1.1216074   -5.2584201   -4.9204014   -0.5569933 
    8900      439    1.0599904   -5.1633908   -4.8410475  -0.57116002 
    9000      440    1.0725034    -5.154205   -4.8251415  -0.69529744 
    9100      441   0.99908324   -5.1577555   -4.8485154  -0.67231516 
    9200      442    0.9676731   -5.1757842     -4.87366  -0.57936867 
    9300      443    1.0708811   -5.1031691   -4.7659503  -0.48571577 
    9400      444    1.0100982   -5.1542476   -4.8334732  -0.70256661 
    9500      445    1.0329349   -5.1445635   -4.8137922  -0.55661429 
    9600      446    1.0631943   -5.2003093   -4.8570358  -0.68269716 
    9700      447    1.0462766   -5.2219656   -4.8813991  -0.68151806 
    9800      448   0.87152202   -5.1638285   -4.8778603  -0.49767662 
    9900      449   0.93085216   -5.1748327   -4.8669673  -0.63330992 
   10000      450    1.1583893   -5.2416217   -4.8554919  -0.72969396 
Loop time of 3.0125 on 8 procs for 10000 steps with 450 atoms

Performance: 1434026.388 tau/day, 3319.506 timesteps/s
98.1% CPU use with 8 MPI tasks x no OpenMP threads

MPI task timing breakdown:
Section |  min time  |  avg time  |  max time  |%varavg| %total
---------------------------------------------------------------
Pair    | 0.0011877  | 0.3885     | 0.98879    |  65.4 | 12.90
Neigh   | 0.0061469  | 0.24413    | 0.70486    |  56.1 |  8.10
Comm    | 1.2379     | 2.0676     | 2.5349     |  34.8 | 68.63
Output  | 0.0026769  | 0.005093   | 0.0080845  |   3.0 |  0.17
Modify  | 0.0045672  | 0.02337    | 0.051823   |  12.6 |  0.78
Other   |            | 0.2838     |            |       |  9.42

Nlocal:    56.25 ave 124 max 3 min
Histogram: 3 1 0 0 0 0 2 0 0 2
Nghost:    1230.88 ave 1805 max 349 min
Histogram: 2 0 0 0 2 0 0 0 0 4
Neighs:    3740.5 ave 8289 max 4 min
Histogram: 4 0 0 0 0 0 0 1 1 2

Total # of neighbors = 29924
Ave neighs/atom = 66.4978
Neighbor list builds = 1138
Dangerous builds = 0
Total wall time: 0:00:03
