LAMMPS (4 Jan 2019)
# sample surface deposition script for molecules

units		lj
atom_style      bond
boundary        p p f

lattice		fcc 1.0
Lattice spacing in x,y,z = 1.5874 1.5874 1.5874
region          box block 0 5 0 5 0 10
create_box      3 box bond/types 1 extra/bond/per/atom 1
Created orthogonal box = (0 0 0) to (7.93701 7.93701 15.874)
  1 by 2 by 4 MPI processor grid

region		substrate block INF INF INF INF INF 3
create_atoms	1 region substrate
Created 350 atoms
  Time spent = 0.00178417 secs

pair_style	lj/cut 2.5
pair_coeff	* * 1.0 1.0
pair_coeff	1 2 1.0 1.0 5.0
mass		* 1.0

bond_style	harmonic
bond_coeff      1 5.0 1.0

neigh_modify	delay 0

group		addatoms type 2
0 atoms in group addatoms
region          mobile block 0 5 0 5 2 INF
group		mobile region mobile
150 atoms in group mobile

compute		add addatoms temp
compute_modify	add dynamic/dof yes extra/dof 0

fix		1 addatoms nve
fix		2 mobile langevin 0.1 0.1 0.1 587283
fix		3 mobile nve

molecule        dimer molecule.dimer.shake
Read molecule dimer:
  2 atoms with max type 3
  1 bonds with max type 1
  0 angles with max type 0
  0 dihedrals with max type 0
  0 impropers with max type 0
region          slab block 0 5 0 5 8 9
fix		4 addatoms deposit 100 0 100 12345 region slab near 1.0                 mol dimer vz -1.0 -1.0 shake 6
fix		5 addatoms wall/reflect zhi EDGE
fix             6 all shake 0.0001 20 1000 b 1 mol dimer
  0 = # of size 2 clusters
  0 = # of size 3 clusters
  0 = # of size 4 clusters
  0 = # of frozen angles

thermo_style	custom step atoms temp epair etotal press
thermo          100
thermo_modify	temp add lost/bond ignore lost warn
WARNING: Temperature for thermo pressure is not for group all (../thermo.cpp:488)

#dump		1 all atom 50 dump.deposit.atom

#dump		2 all image 50 image.*.jpg type type #		axes yes 0.8 0.02 view 80 -30
#dump_modify	2 pad 5

#dump		3 all movie 50 tmp.mpg type type #		axes yes 0.8 0.02 view 80 -30
#dump_modify	3 pad 5

run             10000
Neighbor list info ...
  update every 1 steps, delay 0 steps, check yes
  max neighbors/atom: 2000, page size: 100000
  master list distance cutoff = 5.3
  ghost atom cutoff = 5.3
  binsize = 2.65, bins = 3 3 6
  1 neighbor lists, perpetual/occasional/extra = 1 0 0
  (1) pair lj/cut, perpetual
      attributes: half, newton on
      pair build: half/bin/newton
      stencil: half/bin/3d/newton
      bin: standard
SHAKE stats (type/ave/delta) on step 0
Per MPI rank memory allocation (min/avg/max) = 0.4485 | 3.802 | 5.074 Mbytes
Step Atoms Temp E_pair TotEng Press 
       0      350            0   -6.9215833   -6.9215833   -1.0052629 
     100      352    1.0079368   -6.8852191   -6.8780604  -0.72575301 
     200      354    1.0079368   -6.8544338   -6.8401974  -0.68706628 
     300      356    1.0098741   -6.8247246   -6.8034492  -0.65409477 
     400      358     1.015821   -6.7833831   -6.7550083  -0.68897303 
     500      360    1.0431742   -6.7466548   -6.7104334  -0.69788371 
     600      362    1.0978772    -6.714822   -6.6693299  -0.68774199 
     700      364     1.053705   -6.6711451   -6.6204862  -0.69068991 
     800      366    1.0615929   -6.6352231   -6.5772126  -0.67422077 
     900      368    1.1688075   -6.6110301   -6.5395677  -0.65000178 
SHAKE stats (type/ave/delta) on step 1000
  1 1 2.33147e-15
    1000      370    1.2190923   -6.5688049   -6.4864338  -0.68060452 
    1100      372    1.0722515   -6.5544478   -6.4751819  -0.66773958 
    1200      374    1.1349704   -6.5723265   -6.4812861  -0.61530543 
    1300      376    0.9133583   -6.5940595   -6.5151123  -0.64988717 
    1400      378   0.77414722   -6.5919477   -6.5202674  -0.64525775 
    1500      380   0.81457273   -6.5680247   -6.4876392  -0.64053524 
    1600      382   0.77379338   -6.5713893   -6.4903638  -0.66465533 
    1700      384   0.76184765   -6.5544764   -6.4701573  -0.63576748 
    1800      386   0.65628771   -6.5634012    -6.486891   -0.6222995 
    1900      388   0.59918663   -6.5489712   -6.4756172  -0.67826027 
SHAKE stats (type/ave/delta) on step 2000
  1 1 3.33067e-15
    2000      390   0.78401516   -6.5538867    -6.453372  -0.71876315 
    2100      392   0.66174501    -6.555595   -6.4669684  -0.62278914 
    2200      394   0.73303496   -6.5648803   -6.4625531  -0.69321721 
    2300      396   0.61103502   -6.5513551   -6.4626316  -0.66660714 
    2400      398   0.64068112   -6.5675004   -6.4709153  -0.69600127 
    2500      400   0.71303895   -6.5777571   -6.4663448  -0.72594316 
    2600      402    0.7087658    -6.602839   -6.4882375  -0.70058967 
    2700      404   0.56840046   -6.6103967   -6.5154288  -0.67219273 
    2800      406   0.50768347   -6.6009857   -6.5134541  -0.68864407 
    2900      408   0.46939937   -6.5836509   -6.5002405  -0.69192368 
SHAKE stats (type/ave/delta) on step 3000
  1 1 2.44249e-15
    3000      410   0.45919058   -6.5886036   -6.5046053  -0.68636873 
    3100      412    0.5670625   -6.5904518   -6.4837835  -0.74028114 
    3200      414   0.52102185   -6.6132232   -6.5125427  -0.67016677 
    3300      416   0.39011219   -6.6037386   -6.5263726  -0.69583583 
    3400      418   0.40682193   -6.6055866   -6.5228596  -0.71415575 
    3500      420   0.42961321   -6.5975851   -6.5080823  -0.69494378 
    3600      422   0.51860203   -6.6056744   -6.4950721   -0.7001326 
    3700      424    0.4968388   -6.6220323   -6.5136417  -0.69574272 
    3800      426    0.3949152     -6.62711   -6.5390421  -0.68615765 
    3900      428   0.45866541    -6.638692   -6.5342063  -0.76478038 
SHAKE stats (type/ave/delta) on step 4000
  1 1 2.10942e-15
    4000      430   0.48595789   -6.6390898   -6.5260763  -0.72858223 
    4100      432   0.48850588   -6.6397799   -6.5238728  -0.72419716 
    4200      434   0.44142587    -6.638975   -6.5321784  -0.65110009 
    4300      436   0.44805443   -6.6643739   -6.5539017  -0.70209695 
    4400      438   0.40732641   -6.6642528   -6.5619562  -0.77616681 
    4500      440   0.39400449    -6.668523   -6.5677832  -0.70857093 
    4600      442   0.33331919   -6.6467184   -6.5599951  -0.71437909 
    4700      444    0.3553766   -6.6377841   -6.5437374  -0.79525764 
    4800      446   0.42510009   -6.6409087    -6.526532  -0.72534196 
    4900      448   0.45132675   -6.6687983   -6.5453887  -0.71317776 
SHAKE stats (type/ave/delta) on step 5000
  1 1 2.88658e-15
    5000      450   0.35690415   -6.6645874   -6.5654473  -0.68820667 
    5100      452   0.42130575   -6.6879581   -6.5691163  -0.81001086 
    5200      454   0.38044419   -6.6801334   -6.5711956  -0.76313893 
    5300      456   0.34012208   -6.6708071   -6.5719778   -0.7716277 
    5400      458   0.36645454   -6.6786507   -6.5706346  -0.77716608 
    5500      460   0.34239162   -6.6645507   -6.5622054  -0.73843765 
    5600      462   0.33934666    -6.653037   -6.5502047  -0.74856996 
    5700      464   0.38046713   -6.6621673   -6.5453213  -0.76362778 
    5800      466   0.35330581   -6.6556438   -6.5457096  -0.70460959 
    5900      468   0.39188297   -6.6840951    -6.560585  -0.70472098 
SHAKE stats (type/ave/delta) on step 6000
  1 1 2.55351e-15
    6000      470   0.40786245    -6.700533   -6.5703642  -0.78854014 
    6100      472   0.32453418   -6.7038876   -6.5990328  -0.69530624 
    6200      474    0.3491522   -6.7108563    -6.596682  -0.74462555 
    6300      476   0.33201312    -6.721113   -6.6112557  -0.77394551 
    6400      478    0.3401079    -6.725606   -6.6117623  -0.74538117 
    6500      480   0.31576378   -6.7198444   -6.6129452  -0.83840302 
    6600      482   0.34442034   -6.7155512    -6.597648  -0.82294498 
    6700      484   0.31279511   -6.7005085   -6.5922582  -0.72092873 
    6800      486   0.30893785   -6.6958412   -6.5877765  -0.75855219 
    6900      488   0.33310574   -6.6994576   -6.5817102  -0.76167363 
SHAKE stats (type/ave/delta) on step 7000
  1 1 2.9976e-15
    7000      490   0.35822219   -6.6987958   -6.5708593  -0.87408211 
    7100      492   0.35440464     -6.68699   -6.5591306    -0.776927 
    7200      494   0.31512712   -6.6845859   -6.5697622   -0.7243582 
    7300      496      0.34093   -6.6796178   -6.5541749  -0.89400614 
    7400      498   0.37824512   -6.6915443   -6.5510316  -0.77327227 
    7500      500    0.3271104   -6.6912102   -6.5685438  -0.76586692 
    7600      502   0.32233487   -6.6878064   -6.5658072  -0.76298821 
    7700      504   0.34596241   -6.7028397   -6.5707012  -0.81383389 
    7800      506   0.35591776   -6.7169545   -6.5797925  -0.83842272 
    7900      508   0.38358098   -6.7298306   -6.5807021   -0.7641954 
SHAKE stats (type/ave/delta) on step 8000
  1 1 2.9976e-15
    8000      510    0.3703114   -6.7359748   -6.5907546  -0.79162799 
    8100      512   0.32557765   -6.7211934   -6.5924249  -0.81848696 
    8200      514   0.37421207   -6.7368887   -6.5876407  -0.88459946 
    8300      516   0.33759642   -6.7391951   -6.6034368  -0.74571567 
    8400      518   0.32549345   -6.7444598    -6.612503  -0.78183841 
    8500      520   0.32444919   -6.7388494    -6.606262   -0.8723047 
    8600      522   0.32530721   -6.7577044   -6.6237177  -0.77733942 
    8700      524   0.32639446   -6.7642919   -6.6288133  -0.85443128 
    8800      526   0.30068781   -6.7486438   -6.6228809  -0.80782457 
    8900      528   0.29955877   -6.7551002   -6.6288656   -0.8537624 
SHAKE stats (type/ave/delta) on step 9000
  1 1 3.10862e-15
    9000      530   0.30827979   -6.7528547   -6.6219812  -0.86167206 
    9100      532   0.31531504   -6.7615995   -6.6267608  -0.76643848 
    9200      534   0.31403007    -6.767315   -6.6320586  -0.74061533 
    9300      536   0.30990309   -6.7663447   -6.6319185  -0.84185242 
    9400      538   0.30427137   -6.7554032   -6.6224965   -0.9459212 
    9500      540   0.32252058   -6.7629255   -6.6210761  -0.89936476 
    9600      542   0.29686942   -6.7624449   -6.6309898  -0.78782336 
    9700      544   0.29711189   -6.7571159   -6.6246718  -0.90704181 
    9800      546   0.27236376   -6.7465328   -6.6243183  -0.87098813 
    9900      548   0.30432552   -6.7658736   -6.6284273  -0.86191465 
SHAKE stats (type/ave/delta) on step 10000
  1 1 2.44249e-15
   10000      550   0.26419063   -6.7532384   -6.6331518  -0.78564999 
Loop time of 4.35189 on 8 procs for 10000 steps with 550 atoms

Performance: 992672.217 tau/day, 2297.852 timesteps/s
98.3% CPU use with 8 MPI tasks x no OpenMP threads

MPI task timing breakdown:
Section |  min time  |  avg time  |  max time  |%varavg| %total
---------------------------------------------------------------
Pair    | 0.0011752  | 0.4816     | 1.4079     |  82.2 | 11.07
Bond    | 0.00078834 | 0.0022368  | 0.0057676  |   4.1 |  0.05
Neigh   | 0.0043194  | 0.24561    | 0.74454    |  60.0 |  5.64
Comm    | 1.3552     | 2.5301     | 3.1076     |  43.3 | 58.14
Output  | 0.0029576  | 0.0042038  | 0.0059311  |   1.7 |  0.10
Modify  | 0.65229    | 0.93458    | 1.1664     |  19.4 | 21.48
Other   |            | 0.1536     |            |       |  3.53

Nlocal:    68.75 ave 152 max 0 min
Histogram: 4 0 0 0 0 0 0 2 0 2
Nghost:    1525.38 ave 2169 max 421 min
Histogram: 2 0 0 0 0 2 0 0 0 4
Neighs:    4571.5 ave 11853 max 0 min
Histogram: 4 0 0 0 0 1 1 0 0 2

Total # of neighbors = 36572
Ave neighs/atom = 66.4945
Ave special neighs/atom = 0.363636
Neighbor list builds = 843
Dangerous builds = 0
Total wall time: 0:00:04
