LAMMPS (18 Jun 2019)
# sample surface deposition script for molecules

units		lj
atom_style      bond
boundary        p p f

lattice		fcc 1.0
Lattice spacing in x,y,z = 1.5874 1.5874 1.5874
region          box block 0 5 0 5 0 10
create_box      3 box bond/types 1 extra/bond/per/atom 1
Created orthogonal box = (0 0 0) to (7.93701 7.93701 15.874)
  1 by 2 by 4 MPI processor grid

region		substrate block INF INF INF INF INF 3
create_atoms	1 region substrate
Created 350 atoms
  create_atoms CPU = 0.00107488 secs

pair_style	lj/cut 2.5
pair_coeff	* * 1.0 1.0
pair_coeff	1 2 1.0 1.0 5.0
mass		* 1.0

bond_style	harmonic
bond_coeff      1 5.0 1.0

neigh_modify	delay 0

group		addatoms type 2
0 atoms in group addatoms
region          mobile block 0 5 0 5 2 INF
group		mobile region mobile
150 atoms in group mobile

compute		add addatoms temp
compute_modify	add dynamic/dof yes extra/dof 0

fix		1 addatoms nve
fix		2 mobile langevin 0.1 0.1 0.1 587283
fix		3 mobile nve

molecule        dimer molecule.dimer
Read molecule dimer:
  2 atoms with max type 3
  1 bonds with max type 1
  0 angles with max type 0
  0 dihedrals with max type 0
  0 impropers with max type 0
region          slab block 0 5 0 5 8 9
fix		4 addatoms deposit 100 0 100 12345 region slab near 1.0                 mol dimer vz -1.0 -1.0
fix		5 addatoms wall/reflect zhi EDGE

thermo_style	custom step atoms temp epair etotal press
thermo          100
thermo_modify	temp add lost/bond ignore lost warn
WARNING: Temperature for thermo pressure is not for group all (src/thermo.cpp:489)

#dump		1 all atom 50 dump.deposit.atom

#dump		2 all image 50 image.*.jpg type type #		axes yes 0.8 0.02 view 80 -30
#dump_modify	2 pad 5

#dump		3 all movie 50 movie.mpg type type #		axes yes 0.8 0.02 view 80 -30
#dump_modify	3 pad 5

run             10000
Neighbor list info ...
  update every 1 steps, delay 0 steps, check yes
  max neighbors/atom: 2000, page size: 100000
  master list distance cutoff = 5.3
  ghost atom cutoff = 5.3
  binsize = 2.65, bins = 3 3 6
  1 neighbor lists, perpetual/occasional/extra = 1 0 0
  (1) pair lj/cut, perpetual
      attributes: half, newton on
      pair build: half/bin/newton
      stencil: half/bin/3d/newton
      bin: standard
Per MPI rank memory allocation (min/avg/max) = 0.4484 | 3.146 | 4.199 Mbytes
Step Atoms Temp E_pair TotEng Press 
       0      350            0   -6.9215833   -6.9215833   -1.0052629 
     100      352   0.83994737   -6.8852191   -6.8780604  -0.72575301 
     200      354   0.84013301   -6.8545129   -6.8402732  -0.68713776 
     300      356    0.8404888   -6.8244695    -6.803221  -0.65389845 
     400      358    0.8416027   -6.7823131   -6.7541026  -0.68627141 
     500      360   0.84502226   -6.7506644   -6.7154531   -0.7175191 
     600      362   0.85509813   -6.7068312   -6.6643107   -0.6785814 
     700      364    0.8923986    -6.672448   -6.6209485  -0.68295669 
     800      366   0.90009612   -6.6453775    -6.586114  -0.67508482 
     900      368   0.93307792   -6.6117648   -6.5421819  -0.65017116 
    1000      370    1.0190771   -6.5882093   -6.5050355  -0.69398581 
    1100      372   0.90609883   -6.5898839    -6.500031  -0.66576655 
    1200      374   0.82904295   -6.6008365   -6.5173811  -0.64686067 
    1300      376   0.75992056   -6.5846943   -6.4921977   -0.6351987 
    1400      378   0.75490669   -6.5775539   -6.4909812  -0.68253772 
    1500      380   0.72775299   -6.5728412   -6.4835831  -0.63594798 
    1600      382   0.74385355    -6.567391   -6.4710423  -0.57255856 
    1700      384   0.54343135   -6.5711069   -6.4830318  -0.64689694 
    1800      386   0.62753339   -6.5661936   -6.4769523  -0.69855158 
    1900      388   0.54886678   -6.5619236   -6.4740255  -0.63327672 
    2000      390   0.50640654   -6.5517143   -6.4593347  -0.64184864 
    2100      392    0.5378908    -6.540807   -6.4449114  -0.70124515 
    2200      394    0.6795061   -6.5548144   -6.4272059    -0.681069 
    2300      396   0.65644345   -6.5573641   -6.4275586  -0.63673359 
    2400      398   0.70900221   -6.6115658   -6.4526603  -0.66891702 
    2500      400    0.5200099   -6.6092866   -6.5008343  -0.67475198 
    2600      402   0.54142973   -6.6104753   -6.4930026  -0.71668953 
    2700      404   0.50156382   -6.6207132   -6.5013279  -0.63333145 
    2800      406   0.50635637   -6.6334765   -6.5115656   -0.7177648 
    2900      408   0.47076271   -6.6377522    -6.518507  -0.71918918 
    3000      410   0.39618367   -6.6348297   -6.5259585  -0.71062171 
    3100      412   0.47108781   -6.6504717   -6.5133485  -0.72086609 
    3200      414    0.3819011   -6.6476102   -6.5309154  -0.65257464 
    3300      416   0.40704745   -6.6612878   -6.5318522  -0.66641038 
    3400      418   0.41978567   -6.6501865   -6.5206622  -0.73444741 
    3500      420   0.46402439   -6.6770803   -6.5311403  -0.69560474 
    3600      422   0.40862486   -6.6765969   -6.5405912  -0.65758368 
    3700      424   0.40756528   -6.6890783   -6.5507568   -0.7551229 
    3800      426   0.45332595   -6.6944299   -6.5349826  -0.75631681 
    3900      428   0.39297353   -6.7018754    -6.545115   -0.6801232 
    4000      430   0.36934313   -6.7039847   -6.5653888  -0.69171801 
    4100      432   0.35153252   -6.7236717   -6.5796527  -0.70834472 
    4200      434   0.34106102   -6.7063124   -6.5727004  -0.68057232 
    4300      436   0.35982368   -6.7112482   -6.5674385  -0.76043168 
    4400      438   0.40449765   -6.7370544    -6.569814  -0.76855804 
    4500      440   0.37774603   -6.7242379   -6.5633179  -0.62095915 
    4600      442   0.34080001   -6.7306229   -6.5802406  -0.71926265 
    4700      444   0.33529961   -6.7344153   -6.5729191  -0.73367696 
    4800      446   0.33355827   -6.7291813   -6.5596367  -0.76154774 
    4900      448   0.35013074   -6.7310802   -6.5585368  -0.77019308 
    5000      450   0.31524826   -6.7315511   -6.5565543  -0.75132144 
    5100      452   0.32565337   -6.7398683   -6.5597221   -0.6982558 
    5200      454   0.34329823   -6.7745964   -6.5670971   -0.8062856 
    5300      456   0.32185901   -6.7505256   -6.5664804  -0.78305145 
    5400      458     0.360066   -6.7737854   -6.5634301  -0.71781533 
    5500      460   0.34856496   -6.7792066   -6.5664271  -0.76575715 
    5600      462   0.36159374   -6.7745689   -6.5635594   -0.7337447 
    5700      464   0.40441134   -6.7954293   -6.5631627  -0.76077119 
    5800      466   0.33159079   -6.8075686    -6.587924  -0.70682985 
    5900      468   0.31089059   -6.8255121   -6.6100243  -0.71950787 
    6000      470    0.3312235   -6.8258713   -6.6108256  -0.78658148 
    6100      472   0.37600288   -6.8429888   -6.5966751  -0.70804203 
    6200      474   0.30156596   -6.8483411   -6.6284091  -0.72573296 
    6300      476   0.28168263   -6.8476032   -6.6396656  -0.74619159 
    6400      478   0.34007979   -6.8749968   -6.6312719  -0.81156515 
    6500      480   0.36799596   -6.8960337   -6.6418377  -0.69024054 
    6600      482   0.31396347   -6.8870392   -6.6461511  -0.70155036 
    6700      484    0.3090042   -6.9026775    -6.646688  -0.82242052 
    6800      486   0.36583684    -6.934937   -6.6529371  -0.77609849 
    6900      488   0.35656701   -6.9554188   -6.6739014  -0.73445989 
    7000      490   0.31509972   -6.9648482   -6.6901313  -0.67847257 
    7100      492   0.32108722    -6.995971   -6.7180518  -0.74929392 
    7200      494   0.30449655   -7.0010306   -6.7220421  -0.80659951 
    7300      496   0.32888469   -7.0227103   -6.7296063  -0.74171914 
    7400      498   0.30014768   -7.0366551   -6.7424657  -0.78620065 
    7500      500   0.28991748   -7.0435059    -6.746736  -0.88755955 
    7600      502   0.31614339    -7.058581   -6.7399416  -0.87101348 
    7700      504   0.27968138   -7.0488726   -6.7461903   -0.7184477 
    7800      506   0.29391771    -7.083953   -6.7644608  -0.88823067 
    7900      508   0.28735252   -7.0662891   -6.7584729  -0.77513965 
    8000      510   0.31588669   -7.0769012    -6.752771  -0.80257199 
    8100      512   0.29981477   -7.0915799   -6.7706076  -0.82645985 
    8200      514   0.31443334   -7.1081307   -6.7682726  -0.81630383 
    8300      516   0.29839583    -7.126386   -6.7852307  -0.79873256 
    8400      518   0.29241966   -7.1206452   -6.7864765  -0.91270173 
    8500      520   0.27902355    -7.119971   -6.7845713  -0.77542233 
    8600      522   0.27882225   -7.1431439   -6.7997388  -0.81485991 
    8700      524   0.26912463   -7.1366439   -6.7992231  -0.80416283 
    8800      526   0.30272659    -7.151378   -6.7965227  -0.86220171 
    8900      528   0.28905028   -7.1596649   -6.8015511  -0.85272852 
    9000      530    0.2714648   -7.1634295   -6.8110006  -0.89363226 
    9100      532   0.30245948   -7.1819182   -6.8032581  -0.90097966 
    9200      534   0.28699378   -7.1826594   -6.8172905  -0.84134293 
    9300      536   0.30352468   -7.1874267   -6.8179978  -0.70802142 
    9400      538    0.3030993   -7.1957137   -6.8245976  -0.86186002 
    9500      540   0.28753552   -7.1806334   -6.8211655  -0.85587892 
    9600      542   0.28351865      -7.1794   -6.8163169  -0.92383357 
    9700      544   0.31257698   -7.2105689   -6.8254707  -0.89934477 
    9800      546   0.29826583   -7.2265673   -6.8423947  -0.79266361 
    9900      548   0.26976881   -7.2213245   -6.8555848  -0.80706154 
   10000      550   0.27358726   -7.2251733    -6.854216  -0.92036176 
Loop time of 2.58523 on 8 procs for 10000 steps with 550 atoms

Performance: 1671030.716 tau/day, 3868.127 timesteps/s
70.1% CPU use with 8 MPI tasks x no OpenMP threads

MPI task timing breakdown:
Section |  min time  |  avg time  |  max time  |%varavg| %total
---------------------------------------------------------------
Pair    | 0.00089156 | 0.46279    | 1.1096     |  70.2 | 17.90
Bond    | 0.00092563 | 0.0029604  | 0.0071717  |   4.5 |  0.11
Neigh   | 0.002335   | 0.19506    | 0.54195    |  48.3 |  7.55
Comm    | 0.82116    | 1.6707     | 2.258      |  44.6 | 64.63
Output  | 0.0030904  | 0.0044831  | 0.006409   |   2.0 |  0.17
Modify  | 0.0060993  | 0.024998   | 0.044775   |  10.4 |  0.97
Other   |            | 0.2242     |            |       |  8.67

Nlocal:    68.75 ave 154 max 0 min
Histogram: 4 0 0 0 0 0 0 2 0 2
Nghost:    1492 ave 2147 max 322 min
Histogram: 2 0 0 0 0 0 2 0 0 4
Neighs:    4890.38 ave 12756 max 0 min
Histogram: 4 0 0 0 0 1 1 0 0 2

Total # of neighbors = 39123
Ave neighs/atom = 71.1327
Ave special neighs/atom = 0.363636
Neighbor list builds = 870
Dangerous builds = 0
Total wall time: 0:00:02
