LAMMPS (24 Aug 2020)
# Tethered nanorods

atom_style	molecular

read_data	data.rigid.tnr
Reading data file ...
  orthogonal box = (-31.122000 -31.122000 -31.122000) to (31.122000 31.122000 31.122000)
  2 by 2 by 2 MPI processor grid
  reading atoms ...
  5600 atoms
  scanning bonds ...
  1 = max bonds/atom
  reading bonds ...
  1600 bonds
Finding 1-2 1-3 1-4 neighbors ...
  special bond factors lj:    0.0      0.0      0.0     
  special bond factors coul:  0.0      0.0      0.0     
     2 = max # of 1-2 neighbors
     1 = max # of 1-3 neighbors
     1 = max # of 1-4 neighbors
     2 = max # of special neighbors
  special bonds CPU = 0.001 seconds
  read_data CPU = 0.018 seconds

# Specify bond parameters

bond_style	fene
bond_coeff	1 30.0 1.5 1.0 1.0

special_bonds	fene
Finding 1-2 1-3 1-4 neighbors ...
  special bond factors lj:    0.0      1.0      1.0     
  special bond factors coul:  0.0      1.0      1.0     
     2 = max # of 1-2 neighbors
     2 = max # of special neighbors
  special bonds CPU = 0.000 seconds

# Specify initial velocities

velocity	all create 1.4 109345

# Specify rigid components

group		rods type 2
4000 atoms in group rods
group		tethers	subtract all rods
1600 atoms in group tethers

neigh_modify 	exclude	molecule/intra rods delay 0 every 1

# Specify the pair potentials

pair_style	lj/cut	2.5
pair_modify	shift	yes
pair_coeff	* * 1.0	1.0 1.122
pair_coeff	2 2 1.0 1.0 2.5

# Specify output

thermo	100
thermo_style custom step temp pe etotal press enthalpy lx ly lz pxx pyy pzz
thermo_modify flush yes lost warn

timestep	0.005

fix	1	rods	rigid molecule
  800 rigid bodies with 4000 atoms
fix	2	tethers	nve
fix	3	all	langevin 1.4 1.4 1.0 437624

run	5000
Neighbor list info ...
  update every 1 steps, delay 0 steps, check yes
  max neighbors/atom: 2000, page size: 100000
  master list distance cutoff = 2.8
  ghost atom cutoff = 2.8
  binsize = 1.4, bins = 45 45 45
  1 neighbor lists, perpetual/occasional/extra = 1 0 0
  (1) pair lj/cut, perpetual
      attributes: half, newton on
      pair build: half/bin/newton
      stencil: half/bin/3d/newton
      bin: standard
Per MPI rank memory allocation (min/avg/max) = 7.445 | 7.448 | 7.451 Mbytes
Step Temp PotEng TotEng Press Enthalpy Lx Ly Lz Pxx Pyy Pzz 
       0    1.3963219    5.9478449    7.0445809  0.048565317      9.13595       62.244       62.244       62.244 0.0091983659   0.11850113  0.017996458 
     100    1.3815526    5.9617944      7.04693  0.023057124    8.0398393       62.244       62.244       62.244 0.0062946496  0.046495566  0.016381157 
     200    1.3865483    5.9871855    7.0762449 0.00056516442    7.1005826       62.244       62.244       62.244 -0.0075237322 0.0054216692 0.0037975562 
     300    1.3881513    5.9822898    7.0726083 0.0069920835    7.3737085       62.244       62.244       62.244 0.0080307095 0.0024605856  0.010484955 
     400    1.3805188    5.9896219    7.0739454  0.014454006    7.6963785       62.244       62.244       62.244  0.020977338  0.010990028  0.011394651 
     500    1.4139549    5.9815744    7.0921603 0.0035537046    7.2451935       62.244       62.244       62.244 -0.00097348887 0.0071875143 0.0044470884 
     600    1.3849993    5.9847195    7.0725623 0.0087253257    7.4483011       62.244       62.244       62.244 0.0079522284 0.0071948805  0.011028868 
     700    1.4201424     5.983008    7.0984538  0.012879614    7.6530889       62.244       62.244       62.244   0.01358885  0.014514751  0.010535243 
     800    1.4050078    5.9843793    7.0879377 0.0015832909    7.1561189       62.244       62.244       62.244 -0.00068884329 -3.9037004e-05  0.005477753 
     900    1.4070664    5.9885704    7.0937457 0.0090288859    7.4825568       62.244       62.244       62.244 0.0051642561   0.01088401  0.011038392 
    1000    1.3958895    5.9754363    7.0718328 -0.0014006857     7.011515       62.244       62.244       62.244 -0.0068594786 0.0012349667 0.0014224548 
    1100     1.434154    5.9670293    7.0934805 0.0030926151    7.2266578       62.244       62.244       62.244 0.0048951745 0.00045967423 0.0039229966 
    1200    1.4136038    5.9814389     7.091749 -3.1932522e-05    7.0903739       62.244       62.244       62.244 0.0010331081 0.0004654415 -0.0015943471 
    1300      1.42463    5.9709265     7.089897 0.0040878115    7.2659305       62.244       62.244       62.244 0.0061720569 0.0057035349 0.00038784272 
    1400    1.4660113    5.9639298    7.1154032 0.0057044769    7.3610551       62.244       62.244       62.244  0.010127594 0.0069169854 6.8851376e-05 
    1500    1.4026352    5.9693135    7.0710083 0.0085734748     7.440208       62.244       62.244       62.244 0.0065452962  0.012340426 0.0068347019 
    1600    1.4067903     5.975697    7.0806555 0.0054734007    7.3163566       62.244       62.244       62.244 -0.001955129  0.011850476 0.0065248553 
    1700    1.4148119    5.9548112    7.0660701 0.0042176318    7.2476941       62.244       62.244       62.244  0.003021493 0.0041490338 0.0054823686 
    1800    1.3984161    5.9511961     7.049577  0.010618474    7.5068406       62.244       62.244       62.244 0.0048365897  0.018355694 0.0086631377 
    1900    1.3740665     5.955697    7.0349526 0.0052547806    7.2612393       62.244       62.244       62.244 0.0018033687 0.0067900592 0.0071709139 
    2000    1.4427151    5.9340487    7.0672241 0.0044335242     7.258145       62.244       62.244       62.244 0.0052870637 0.0068061722 0.0012073368 
    2100    1.4280267    5.9481618    7.0698003 0.0092659998    7.4688222       62.244       62.244       62.244 0.0071460399 0.0070190708  0.013632889 
    2200    1.3808083    5.9537892    7.0383402 -0.0011654095    6.9881542       62.244       62.244       62.244 -0.0003695931 -0.0037975299 0.00067089445 
    2300    1.4069092    5.9446369    7.0496887 0.0076078859    7.3773072       62.244       62.244       62.244 0.0084916342 0.0053459448 0.0089860785 
    2400     1.429277    5.9480433    7.0706638 0.0061199937    7.3342092       62.244       62.244       62.244 0.0028553439 0.0072542582 0.0082503789 
    2500    1.3948047    5.9466935    7.0422378 0.0015628652    7.1095395       62.244       62.244       62.244 0.00024515513 0.0052702023 -0.00082676171 
    2600    1.3901038     5.937153     7.029005 0.0015081601     7.093951       62.244       62.244       62.244 0.00092961663 0.00073365504 0.0028612085 
    2700    1.3925603     5.938459    7.0322406   0.00199994     7.118364       62.244       62.244       62.244 0.0052953117 0.0035244678 -0.0028199595 
    2800    1.3880804    5.9292714    7.0195342 0.0060014617    7.2779753       62.244       62.244       62.244 0.0055084899  0.010842194 0.0016537017 
    2900    1.3945083     5.925954    7.0212655 0.0049176801    7.2330357       62.244       62.244       62.244 0.0056872039 0.0038455534 0.0052202831 
    3000    1.3962354    5.9280533    7.0247214 0.0023891661    7.1276061       62.244       62.244       62.244 0.0013588773 0.0021996958 0.0036089251 
    3100    1.3784838    5.9152388     6.997964  0.005009419    7.2136847       62.244       62.244       62.244 0.0048391308 0.0096113471 0.00057777907 
    3200    1.4058057    5.9116538    7.0158389 0.0027795596    7.1355351       62.244       62.244       62.244 0.0022035413 0.0023289878 0.0038061497 
    3300    1.4270865    5.9058944    7.0267944 0.0033024956    7.1690098       62.244       62.244       62.244  0.010633226 -0.00072986795 4.1288157e-06 
    3400    1.4287571    5.9156933    7.0379055 0.0034275524    7.1855063       62.244       62.244       62.244 0.0059318568 0.0042543851 9.6415391e-05 
    3500     1.424229    5.9044911    7.0231467 0.0061801266    7.2892816       62.244       62.244       62.244 0.0065188826 0.0053264813 0.0066950158 
    3600    1.3879087    5.9113838    7.0015117 -0.00057458297    6.9767684       62.244       62.244       62.244 -0.00066758355 0.00085692723 -0.0019130926 
    3700    1.4068783    5.8959283    7.0009558 0.0082687394    7.3570327       62.244       62.244       62.244 0.0084886419 0.0083078439 0.0080097324 
    3800    1.4221256    5.8926754    7.0096789 0.0045000008    7.2034625       62.244       62.244       62.244 0.0078322779 0.0059896726 -0.00032194792 
    3900    1.3760828    5.8984033    6.9792427 0.0033510609    7.1235495       62.244       62.244       62.244 0.0023077511 0.00086974728 0.0068756845 
    4000     1.371553      5.91022    6.9875014 0.0046937281    7.1896275       62.244       62.244       62.244 0.0083095381 0.0053764997 0.00039514643 
    4100    1.3856843    5.9023749    6.9907557 0.0011166539    7.0388422       62.244       62.244       62.244 0.00067974114 -0.0007792668 0.0034494875 
    4200    1.4043623    5.8998076    7.0028589 0.0094843365    7.4112831       62.244       62.244       62.244   0.01059059 0.0053067038  0.012555716 
    4300    1.4172217    5.8857113     6.998863  0.002785401    7.1188108       62.244       62.244       62.244 0.0060230373 0.0016485787 0.00068458715 
    4400    1.4237177    5.9087983    7.0270522 0.0042477516    7.2099732       62.244       62.244       62.244 0.0050553246 0.00092405497 0.0067638751 
    4500    1.3817497    5.9107669    6.9960573 0.0064608459    7.2742808       62.244       62.244       62.244  0.005410915 0.0083057158 0.0056659069 
    4600    1.4149216     5.904067    7.0154121  0.011824579    7.5246141       62.244       62.244       62.244  0.013463731  0.010073334  0.011936673 
    4700    1.4260637    5.9043683    7.0244649 -0.00086023402    6.9874207       62.244       62.244       62.244 0.0055058676 -0.0066615405 -0.0014250291 
    4800    1.3964014    5.8912343    6.9880328  0.010365083    7.4343846       62.244       62.244       62.244  0.011035574 0.0090361671  0.011023507 
    4900     1.375423    5.8884691    6.9687901  0.010664769    7.4280472       62.244       62.244       62.244  0.014947402 0.0095143516 0.0075325529 
    5000    1.4012863    5.9005727     7.001208 -0.0041693723    6.8216623       62.244       62.244       62.244 -0.007299363 -7.1748641e-05 -0.0051370053 
Loop time of 3.23971 on 8 procs for 5000 steps with 5600 atoms

Performance: 666726.433 tau/day, 1543.348 timesteps/s
92.3% CPU use with 8 MPI tasks x no OpenMP threads

MPI task timing breakdown:
Section |  min time  |  avg time  |  max time  |%varavg| %total
---------------------------------------------------------------
Pair    | 0.038522   | 0.068835   | 0.088595   |   7.0 |  2.12
Bond    | 0.018481   | 0.029089   | 0.035268   |   3.6 |  0.90
Neigh   | 0.34372    | 0.35098    | 0.35733    |   0.8 | 10.83
Comm    | 0.25333    | 0.27515    | 0.30866    |   3.6 |  8.49
Output  | 0.003646   | 0.0046221  | 0.0059635  |   1.1 |  0.14
Modify  | 2.0862     | 2.2096     | 2.4583     |   9.3 | 68.20
Other   |            | 0.3014     |            |       |  9.30

Nlocal:        700.000 ave         947 max         472 min
Histogram: 3 1 0 0 0 0 0 0 1 3
Nghost:        449.750 ave         531 max         337 min
Histogram: 1 0 0 2 1 0 1 0 1 2
Neighs:        594.250 ave         917 max         302 min
Histogram: 2 1 1 0 0 0 0 2 1 1

Total # of neighbors = 4754
Ave neighs/atom = 0.84892857
Ave special neighs/atom = 0.57142857
Neighbor list builds = 761
Dangerous builds = 0

# Replace fix rigid and fix langevin with new ones

unfix	1
unfix	3

fix	3	tethers langevin 1.4 1.4 1.0 198450

# Test different integrators for rods

fix	1 rods	rigid/nve molecule
  800 rigid bodies with 4000 atoms
print 	"rigid/nve"
rigid/nve
run	1000
Per MPI rank memory allocation (min/avg/max) = 7.447 | 7.452 | 7.458 Mbytes
Step Temp PotEng TotEng Press Enthalpy Lx Ly Lz Pxx Pyy Pzz 
    5000    1.4012863    5.9005727     7.001208 -0.0088271832    6.6210829       62.244       62.244       62.244 -0.038235203  0.039940521 -0.028186867 
    5100    1.3988962    5.9002349    6.9989929 -0.0015366121    6.9328218       62.244       62.244       62.244 -0.0010158913 -0.0011789418 -0.0024150031 
    5200    1.4119374    5.9001102    7.0091114 0.0057898852    7.2584413       62.244       62.244       62.244 0.0070198928 0.0065213192 0.0038284435 
    5300    1.4004377    5.8980648    6.9980336 0.0062016759    7.2650965       62.244       62.244       62.244 0.0053344022 0.0056904298 0.0075801957 
    5400    1.4080173    5.8908342    6.9967564 0.0026635729    7.1114579       62.244       62.244       62.244 0.0026530543 0.0023606903 0.0029769742 
    5500    1.3822784    5.8929328    6.9786385 0.0021930074     7.073076       62.244       62.244       62.244 -0.00018403185 0.0057781668 0.00098488744 
    5600    1.4189254    5.8702318    6.9847217  0.011131579    7.4640811       62.244       62.244       62.244  0.013196112  0.014363203 0.0058354224 
    5700    1.4154471    5.8876664    6.9994243 0.0062922289    7.2703867       62.244       62.244       62.244 0.0045468115 0.0064751031  0.007854772 
    5800    1.4089803    5.8857233    6.9924018 0.0056147993     7.234192       62.244       62.244       62.244 0.0021685554  0.005931973 0.0087438693 
    5900    1.4310567    5.8840187    7.0080371  0.005454031    7.2429041       62.244       62.244       62.244 0.0038655007  0.004009136 0.0084874562 
    6000     1.416106    5.8764996     6.988775 0.0022860391    7.0872187       62.244       62.244       62.244 0.0015088539 0.0034783266 0.0018709367 
Loop time of 0.870958 on 8 procs for 1000 steps with 5600 atoms

Performance: 496005.599 tau/day, 1148.161 timesteps/s
94.1% CPU use with 8 MPI tasks x no OpenMP threads

MPI task timing breakdown:
Section |  min time  |  avg time  |  max time  |%varavg| %total
---------------------------------------------------------------
Pair    | 0.011641   | 0.019154   | 0.028297   |   4.0 |  2.20
Bond    | 0.00437    | 0.006057   | 0.0075174  |   1.5 |  0.70
Neigh   | 0.080496   | 0.081882   | 0.0833     |   0.3 |  9.40
Comm    | 0.052032   | 0.06222    | 0.070319   |   2.7 |  7.14
Output  | 0.00067713 | 0.0009362  | 0.0012613  |   0.0 |  0.11
Modify  | 0.50765    | 0.55671    | 0.64602    |   7.1 | 63.92
Other   |            | 0.144      |            |       | 16.53

Nlocal:        700.000 ave         949 max         444 min
Histogram: 2 2 0 0 0 0 0 0 2 2
Nghost:        431.500 ave         593 max         316 min
Histogram: 1 2 0 1 1 1 1 0 0 1
Neighs:        696.500 ave        1171 max         353 min
Histogram: 3 0 1 0 0 2 0 1 0 1

Total # of neighbors = 5572
Ave neighs/atom = 0.995
Ave special neighs/atom = 0.57142857
Neighbor list builds = 153
Dangerous builds = 0
unfix	1

fix	1 rods	rigid/nvt molecule temp 1.4 1.4 1.0
  800 rigid bodies with 4000 atoms
print 	"rigid/nvt"
rigid/nvt
run	1000
Per MPI rank memory allocation (min/avg/max) = 7.447 | 7.452 | 7.458 Mbytes
Step Temp PotEng TotEng Press Enthalpy Lx Ly Lz Pxx Pyy Pzz 
    6000     1.416106    5.8764996     6.988775 -0.0030991273    6.8553172       62.244       62.244       62.244  0.056341504 0.0062937477 -0.071932633 
    6100    1.4086173    5.8646607    6.9710541 0.0037473978    7.1324283       62.244       62.244       62.244 0.0058351059 0.0025058953 0.0029011922 
    6200    1.3773077    5.8758565    6.9576578  0.002778736    7.0773186       62.244       62.244       62.244 0.0014490934 0.0035169776  0.003370137 
    6300    1.3840872    5.8705946     6.957721 0.0051273592    7.1785205       62.244       62.244       62.244 0.0018936144 0.0072401524 0.0062483108 
    6400    1.3830509    5.8818492    6.9681616 0.0017015018    7.0414334       62.244       62.244       62.244 0.00085819659 -0.0012037924 0.0054501013 
    6500    1.3798156    5.8884169    6.9721882 0.0014636447    7.0352172       62.244       62.244       62.244 -0.00038578855 0.0035648767 0.0012118458 
    6600    1.3783853    5.8609834    6.9436311 0.00065261199    6.9717346       62.244       62.244       62.244 0.0055265541 -0.00040727566 -0.0031614425 
    6700    1.3722744    5.8818426    6.9596905 0.0077113858    7.2917661       62.244       62.244       62.244 0.0072004736  0.007156975 0.0087767089 
    6800    1.4060631     5.880317    6.9847042 0.0017099696    7.0583407       62.244       62.244       62.244 0.0013253436 0.00074069169 0.0030638736 
    6900    1.3891042    5.8812253    6.9722922 0.0032262112    7.1112226       62.244       62.244       62.244 0.0024522409 0.0048861657 0.0023402268 
    7000    1.4177533    5.8740438    6.9876131 0.00049360112     7.008869       62.244       62.244       62.244 -0.0014977446 0.0035094559 -0.0005309079 
Loop time of 0.910501 on 8 procs for 1000 steps with 5600 atoms

Performance: 474463.912 tau/day, 1098.296 timesteps/s
93.8% CPU use with 8 MPI tasks x no OpenMP threads

MPI task timing breakdown:
Section |  min time  |  avg time  |  max time  |%varavg| %total
---------------------------------------------------------------
Pair    | 0.01054    | 0.019849   | 0.033268   |   5.1 |  2.18
Bond    | 0.0035088  | 0.0062434  | 0.0086682  |   2.1 |  0.69
Neigh   | 0.090069   | 0.091606   | 0.092941   |   0.3 | 10.06
Comm    | 0.0586     | 0.072717   | 0.083846   |   2.9 |  7.99
Output  | 0.00096648 | 0.0010827  | 0.001271   |   0.3 |  0.12
Modify  | 0.5161     | 0.55984    | 0.61281    |   4.9 | 61.49
Other   |            | 0.1592     |            |       | 17.48

Nlocal:        700.000 ave         940 max         462 min
Histogram: 3 1 0 0 0 0 0 0 1 3
Nghost:        434.625 ave         546 max         319 min
Histogram: 1 0 2 0 1 1 1 0 1 1
Neighs:        717.625 ave        1104 max         387 min
Histogram: 2 1 1 0 0 0 1 1 1 1

Total # of neighbors = 5741
Ave neighs/atom = 1.0251786
Ave special neighs/atom = 0.57142857
Neighbor list builds = 154
Dangerous builds = 0
unfix	1

compute	myTemp all temp

fix	1 rods	rigid/npt molecule temp 1.4 1.4 1.0 iso 0.05 0.05 1.0         dilate all
  800 rigid bodies with 4000 atoms
print 	"rigid/npt iso"
rigid/npt iso
fix_modify 1 temp myTemp

run	1000
Per MPI rank memory allocation (min/avg/max) = 7.447 | 7.452 | 7.458 Mbytes
Step Temp PotEng TotEng Press Enthalpy Lx Ly Lz Pxx Pyy Pzz 
    7000    1.4177533    5.8740438    6.9876131 -0.0015957467    6.9188954       62.244       62.244       62.244 -0.013282649 0.0023589843 0.0061364244 
    7100    1.4645137    5.8646537    7.0149508  0.019245301    7.6524178    57.030481    57.030481    57.030481  0.019755647  0.016218644   0.02176161 
    7200    1.5126298    5.8379021    7.0259918  0.021970481    7.5261338    50.328494    50.328494    50.328494  0.021549426  0.021539308   0.02282271 
    7300      1.58742    5.7934575    7.0402909  0.029631352    7.5318254    45.289431    45.289431    45.289431  0.027516239  0.030006614  0.031371202 
    7400    1.5309614    5.7543019    6.9567901  0.028951613    7.3324233     41.72789     41.72789     41.72789  0.038877093  0.029821432  0.018156313 
    7500    1.5515319    5.7315336    6.9501787  0.043171971    7.4080121    39.014963    39.014963    39.014963  0.042682976   0.03567885  0.051154087 
    7600    1.5447375    5.6853534     6.898662  0.051846708    7.3616506    36.842214    36.842214    36.842214   0.04686077   0.03031533  0.078364023 
    7700    1.5125728    5.6349852    6.8230301  0.047031159    7.1901302    35.225914    35.225914    35.225914  0.013282409  0.087483457  0.040327611 
    7800    1.4954122    5.6097859    6.7843521  0.053957119     7.162945    33.996738    33.996738    33.996738  0.070798096  0.046977326  0.044095934 
    7900    1.5009187    5.5733666    6.7522578  0.054060046    7.1029936    33.120528    33.120528    33.120528   0.05072715  0.043632831  0.067820157 
    8000    1.4899146    5.5444641    6.7147121  0.070193797    7.1448411    32.495957    32.495957    32.495957  0.065941979  0.085773817  0.058865596 
Loop time of 1.30538 on 8 procs for 1000 steps with 5600 atoms

Performance: 330938.015 tau/day, 766.060 timesteps/s
93.5% CPU use with 8 MPI tasks x no OpenMP threads

MPI task timing breakdown:
Section |  min time  |  avg time  |  max time  |%varavg| %total
---------------------------------------------------------------
Pair    | 0.028655   | 0.051472   | 0.075905   |   8.1 |  3.94
Bond    | 0.0048828  | 0.0076006  | 0.0095465  |   2.1 |  0.58
Neigh   | 0.33643    | 0.33779    | 0.33898    |   0.1 | 25.88
Comm    | 0.10131    | 0.12455    | 0.1465     |   4.8 |  9.54
Output  | 0.00054433 | 0.00060295 | 0.00088707 |   0.0 |  0.05
Modify  | 0.61974    | 0.64634    | 0.72937    |   4.3 | 49.51
Other   |            | 0.137      |            |       | 10.50

Nlocal:        700.000 ave         938 max         473 min
Histogram: 3 1 0 0 0 0 0 0 3 1
Nghost:        1012.75 ave        1165 max         871 min
Histogram: 1 1 1 0 1 1 1 1 0 1
Neighs:        3148.75 ave        5060 max        1580 min
Histogram: 4 0 0 0 0 0 0 2 0 2

Total # of neighbors = 25190
Ave neighs/atom = 4.4982143
Ave special neighs/atom = 0.57142857
Neighbor list builds = 337
Dangerous builds = 0
unfix	1

fix	1 rods	rigid/npt molecule temp 1.4 1.4 1.0 x 0.05 0.05 1.0 dilate all
  800 rigid bodies with 4000 atoms
print 	"rigid/npt x"
rigid/npt x
run	1000
Per MPI rank memory allocation (min/avg/max) = 7.452 | 7.460 | 7.472 Mbytes
Step Temp PotEng TotEng Press Enthalpy Lx Ly Lz Pxx Pyy Pzz 
    8000    1.4899146    5.5444641    6.7147121  0.027591185    6.8837836    32.495957    32.495957    32.495957  -0.17163811   0.18273773  0.071673935 
    8100    1.4733453    5.5510433    6.7082771  0.018609346    6.8210957    32.149865    32.495957    32.495957  0.014972167 -0.0048070901   0.04566296 
    8200    1.4638239    5.5148846    6.6646399  0.026239769    6.8209117    31.582755    32.495957    32.495957  0.052127697  0.019355918 0.0072356934 
    8300    1.4588079    5.4862745      6.63209  0.011093263    6.6968205    30.944192    32.495957    32.495957  0.064361948 -0.015644367 -0.015437793 
    8400    1.4358471     5.470136     6.597917   0.01930499    6.7087855    30.455655    32.495957    32.495957  0.027274514 0.0053593892  0.025281067 
    8500    1.4313196    5.4468286    6.5710535  0.028702093    6.7333815    29.992264    32.495957    32.495957  0.059391811  0.041855929 -0.015141462 
    8600    1.4191935     5.426272    6.5409725  0.020919933    6.6576211    29.569824    32.495957    32.495957  0.022450529  0.042563715 -0.0022544437 
    8700    1.4349037    5.4116007    6.5386406  0.041754016    6.7669385    28.995667    32.495957    32.495957  0.046401289  0.056518477  0.022342283 
    8800    1.4309709    5.4103485    6.5342995  0.041597203     6.757682    28.478322    32.495957    32.495957  0.049984926  0.019557962  0.055248722 
    8900    1.4455029     5.396189    6.5315541 -0.004906365    6.5056341     28.01589    32.495957    32.495957 -0.0069413367 -0.040107309   0.03232955 
    9000    1.4402527    5.3852058    6.5164471  0.029266533    6.6679892    27.459425    32.495957    32.495957  0.043566462  0.024154791  0.020078346 
Loop time of 1.31529 on 8 procs for 1000 steps with 5600 atoms

Performance: 328444.919 tau/day, 760.289 timesteps/s
94.7% CPU use with 8 MPI tasks x no OpenMP threads

MPI task timing breakdown:
Section |  min time  |  avg time  |  max time  |%varavg| %total
---------------------------------------------------------------
Pair    | 0.048993   | 0.082786   | 0.11823    |   9.1 |  6.29
Bond    | 0.0056577  | 0.0077025  | 0.0094166  |   1.6 |  0.59
Neigh   | 0.27058    | 0.27169    | 0.27239    |   0.1 | 20.66
Comm    | 0.11214    | 0.14041    | 0.16898    |   5.4 | 10.67
Output  | 0.00051583 | 0.00056551 | 0.00081401 |   0.0 |  0.04
Modify  | 0.63148    | 0.65929    | 0.79295    |   6.4 | 50.12
Other   |            | 0.1528     |            |       | 11.62

Nlocal:        700.000 ave         909 max         525 min
Histogram: 3 0 1 0 0 0 0 2 1 1
Nghost:        1100.25 ave        1292 max         932 min
Histogram: 2 0 0 2 1 0 1 0 1 1
Neighs:        3897.25 ave        6239 max        2219 min
Histogram: 3 1 0 0 0 0 2 0 1 1

Total # of neighbors = 31178
Ave neighs/atom = 5.5675000
Ave special neighs/atom = 0.57142857
Neighbor list builds = 168
Dangerous builds = 0
unfix	1

fix	1 rods	rigid/nph molecule iso 0.05 0.05 1.0 dilate all
  800 rigid bodies with 4000 atoms
print 	"rigid/nph iso"
rigid/nph iso
run	1000
Per MPI rank memory allocation (min/avg/max) = 7.453 | 7.463 | 7.475 Mbytes
Step Temp PotEng TotEng Press Enthalpy Lx Ly Lz Pxx Pyy Pzz 
    9000    1.4402527    5.3852058    6.5164471    0.1925669    7.5135586    27.459425    32.495957    32.495957   0.43751337  0.075367448  0.064819891 
    9100    1.4319035    5.3528843    6.4775678  0.081379593    6.8903682    27.271704    32.273804    32.273804    0.1192921  0.048932299  0.075914381 
    9200    1.4826166    5.3187561     6.483272 0.0013370018    6.4898781    27.033911    31.992396    31.992396 -0.015639574  0.014403201 0.0052473785 
    9300    1.4811737    5.3088912    6.4722738  0.042614363     6.679249    26.879725    31.809929    31.809929  0.022269166  0.043851255  0.061722668 
    9400    1.4439433    5.2929739    6.4271139  0.048649231     6.660708    26.777254    31.688663    31.688663  0.066381638  0.052747981  0.026818074 
    9500    1.4574658    5.2981499    6.4429112  0.072105684    6.7846532    26.661241    31.551372    31.551372  0.033987114  0.063799997   0.11852994 
    9600    1.4761759    5.2772171    6.4366742   0.06585855    6.7453557    26.562581    31.434616    31.434616   0.10075993  0.016164403   0.08065132 
    9700    1.4830063    5.2827738    6.4475957  0.078906718    6.8101471    26.386955    31.226777    31.226777  0.066168764  0.067514258   0.10303713 
    9800     1.452825    5.2747966    6.4159128 0.0077469107    6.4508981     26.23554    31.047589    31.047589 0.00023443115  0.011894502  0.011111799 
    9900    1.4341616    5.2487709     6.375228  0.045444303    6.5758517    26.037845    30.813634    30.813634  0.056936495  0.022830399  0.056566014 
   10000    1.4502642    5.2145775    6.3536824  0.044683972     6.549185    25.959982    30.721489    30.721489  0.037106263  0.064958219  0.031987434 
Loop time of 1.38664 on 8 procs for 1000 steps with 5600 atoms

Performance: 311544.224 tau/day, 721.167 timesteps/s
95.3% CPU use with 8 MPI tasks x no OpenMP threads

MPI task timing breakdown:
Section |  min time  |  avg time  |  max time  |%varavg| %total
---------------------------------------------------------------
Pair    | 0.066025   | 0.10075    | 0.14742    |   8.6 |  7.27
Bond    | 0.0066415  | 0.0081247  | 0.009205   |   1.0 |  0.59
Neigh   | 0.28988    | 0.29078    | 0.29128    |   0.1 | 20.97
Comm    | 0.1169     | 0.15606    | 0.18508    |   5.4 | 11.25
Output  | 0.0005463  | 0.00061661 | 0.00091539 |   0.0 |  0.04
Modify  | 0.63778    | 0.6753     | 0.79322    |   5.9 | 48.70
Other   |            | 0.155      |            |       | 11.18

Nlocal:        700.000 ave         896 max         502 min
Histogram: 1 1 1 1 0 0 1 1 1 1
Nghost:        1183.12 ave        1301 max        1068 min
Histogram: 1 1 0 2 1 0 0 0 1 2
Neighs:        4620.75 ave        7329 max        2477 min
Histogram: 2 1 0 1 0 1 1 0 1 1

Total # of neighbors = 36966
Ave neighs/atom = 6.6010714
Ave special neighs/atom = 0.57142857
Neighbor list builds = 165
Dangerous builds = 0
unfix	1

fix	1 rods	rigid/nph molecule x 0.05 0.05 1.0 y 0.05 0.05 1.0         couple xy dilate all
  800 rigid bodies with 4000 atoms
print 	"rigid/nph xy couple"
rigid/nph xy couple
run	1000
Per MPI rank memory allocation (min/avg/max) = 7.458 | 7.465 | 7.475 Mbytes
Step Temp PotEng TotEng Press Enthalpy Lx Ly Lz Pxx Pyy Pzz 
   10000    1.4502642    5.2145775    6.3536824  0.084845845    6.7249025    25.959982    30.721489    30.721489   0.19186785 -0.044179595   0.10684927 
   10100    1.4611093    5.2290674    6.3766905  0.061939375    6.6476197    25.956639    30.717534    30.721489  0.061600304  0.027557322    0.0966605 
   10200    1.4498939     5.218733     6.357547 0.0066790422    6.3866047    25.886757    30.634834    30.721489 -0.034810355 0.0036058722  0.051241609 
   10300    1.4499313    5.2114729    6.3503163   0.09036649    6.7381755    25.712084    30.428123    30.721489  0.069801841   0.11671082  0.084586808 
   10400    1.4576802    5.1935254    6.3384552 -0.010504476     6.293669    25.626459    30.326793    30.721489  -0.01856075  0.021476001 -0.034428679 
   10500    1.4470845    5.1984688    6.3350761   0.04571342    6.5290338    25.564401    30.253353    30.721489  0.063174026  0.061871675   0.01209456 
   10600    1.4609433    5.1878465    6.3353393  0.046595515    6.5315914    25.470596    30.142342    30.721489  0.046119568 0.0010036625  0.092663315 
   10700    1.4390665    5.1848407    6.3151503   0.04395433    6.4978055    25.299917    29.940358    30.721489  0.043704175  0.067021617  0.021137197 
   10800    1.4830738    5.1650206    6.3298955  0.084890418    6.6794701    25.185149    29.804539    30.721489  0.086504476   0.12069815   0.04746863 
   10900    1.4558227    5.1664199    6.3098906  0.017408486    6.3825065    25.347729    29.996939    30.721489  0.035349937 -0.0086001954  0.025475716 
   11000    1.4618102    5.1621891    6.3103627  0.021087761    6.3990654     25.45406    30.122773    30.721489  0.043984351 -0.033438767  0.052717698 
Loop time of 1.30423 on 8 procs for 1000 steps with 5600 atoms

Performance: 331228.886 tau/day, 766.734 timesteps/s
96.4% CPU use with 8 MPI tasks x no OpenMP threads

MPI task timing breakdown:
Section |  min time  |  avg time  |  max time  |%varavg| %total
---------------------------------------------------------------
Pair    | 0.073614   | 0.10397    | 0.15159    |   8.6 |  7.97
Bond    | 0.0058694  | 0.0075482  | 0.008666   |   1.1 |  0.58
Neigh   | 0.28493    | 0.28581    | 0.28612    |   0.1 | 21.91
Comm    | 0.11408    | 0.1574     | 0.18453    |   5.9 | 12.07
Output  | 0.00050933 | 0.00055965 | 0.00082706 |   0.0 |  0.04
Modify  | 0.60789    | 0.62874    | 0.734      |   5.0 | 48.21
Other   |            | 0.1202     |            |       |  9.22

Nlocal:        700.000 ave         891 max         506 min
Histogram: 1 0 0 2 1 2 0 0 1 1
Nghost:        1158.00 ave        1295 max        1047 min
Histogram: 2 1 1 0 0 1 0 1 1 1
Neighs:        4840.75 ave        7623 max        2592 min
Histogram: 1 0 3 0 1 1 0 1 0 1

Total # of neighbors = 38726
Ave neighs/atom = 6.9153571
Ave special neighs/atom = 0.57142857
Neighbor list builds = 160
Dangerous builds = 0

Total wall time: 0:00:10
