LAMMPS (18 Jun 2019)
  using 1 OpenMP thread(s) per MPI task
# Tethered nanorods

atom_style	molecular

read_data	data.rigid.tnr
  orthogonal box = (-31.122 -31.122 -31.122) to (31.122 31.122 31.122)
  2 by 2 by 2 MPI processor grid
  reading atoms ...
  5600 atoms
  scanning bonds ...
  1 = max bonds/atom
  reading bonds ...
  1600 bonds
  2 = max # of 1-2 neighbors
  1 = max # of 1-3 neighbors
  1 = max # of 1-4 neighbors
  2 = max # of special neighbors
  special bonds CPU = 0.00151706 secs
  read_data CPU = 0.0173342 secs

# Specify bond parameters

bond_style	fene
bond_coeff	1 30.0 1.5 1.0 1.0

special_bonds	fene
  2 = max # of 1-2 neighbors
  2 = max # of special neighbors
  special bonds CPU = 0.00038147 secs

# Specify initial velocities

velocity	all create 1.4 109345

# Specify rigid components

group		rods type 2
4000 atoms in group rods
group		tethers	subtract all rods
1600 atoms in group tethers

neigh_modify 	exclude	molecule/intra rods delay 0 every 1

# Specify the pair potentials

pair_style	lj/cut	2.5
pair_modify	shift	yes
pair_coeff	* * 1.0	1.0 1.122
pair_coeff	2 2 1.0 1.0 2.5

# Specify output

thermo	100
thermo_style custom step temp pe etotal press enthalpy lx ly lz pxx pyy pzz
thermo_modify flush yes lost warn

timestep	0.005

fix	1	rods	rigid molecule
800 rigid bodies with 4000 atoms
fix	2	tethers	nve
fix	3	all	langevin 1.4 1.4 1.0 437624

run	5000
Neighbor list info ...
  update every 1 steps, delay 0 steps, check yes
  max neighbors/atom: 2000, page size: 100000
  master list distance cutoff = 2.8
  ghost atom cutoff = 2.8
  binsize = 1.4, bins = 45 45 45
  1 neighbor lists, perpetual/occasional/extra = 1 0 0
  (1) pair lj/cut, perpetual
      attributes: half, newton on
      pair build: half/bin/newton
      stencil: half/bin/3d/newton
      bin: standard
Per MPI rank memory allocation (min/avg/max) = 7.089 | 7.268 | 7.446 Mbytes
Step Temp PotEng TotEng Press Enthalpy Lx Ly Lz Pxx Pyy Pzz 
       0    1.3963219    5.9478449    7.0445809  0.048565317      9.13595       62.244       62.244       62.244 0.0091983659   0.11850113  0.017996458 
     100    1.3815526    5.9617944      7.04693  0.023057124    8.0398393       62.244       62.244       62.244 0.0062946496  0.046495566  0.016381157 
     200    1.3865483    5.9871855    7.0762449 0.00056516442    7.1005826       62.244       62.244       62.244 -0.0075237322 0.0054216692 0.0037975562 
     300    1.3881513    5.9822898    7.0726083 0.0069920835    7.3737085       62.244       62.244       62.244 0.0080307095 0.0024605856  0.010484955 
     400    1.3805188    5.9896219    7.0739454  0.014454006    7.6963785       62.244       62.244       62.244  0.020977338  0.010990028  0.011394651 
     500    1.4139549    5.9815744    7.0921603 0.0035537046    7.2451935       62.244       62.244       62.244 -0.00097348887 0.0071875143 0.0044470884 
     600    1.3849993    5.9847195    7.0725623 0.0087253257    7.4483011       62.244       62.244       62.244 0.0079522284 0.0071948805  0.011028868 
     700    1.4201424     5.983008    7.0984538  0.012879614    7.6530889       62.244       62.244       62.244   0.01358885  0.014514751  0.010535243 
     800    1.4050078    5.9843793    7.0879377 0.0015832909    7.1561189       62.244       62.244       62.244 -0.00068884329 -3.9037004e-05  0.005477753 
     900    1.4070664    5.9885704    7.0937457 0.0090288859    7.4825568       62.244       62.244       62.244 0.0051642561   0.01088401  0.011038392 
    1000    1.3958895    5.9754363    7.0718328 -0.0014006857     7.011515       62.244       62.244       62.244 -0.0068594786 0.0012349667 0.0014224548 
    1100     1.434154    5.9670293    7.0934805 0.0030926151    7.2266578       62.244       62.244       62.244 0.0048951745 0.00045967423 0.0039229966 
    1200    1.4136038    5.9814389     7.091749 -3.1932522e-05    7.0903739       62.244       62.244       62.244 0.0010331081 0.0004654415 -0.0015943471 
    1300      1.42463    5.9709265     7.089897 0.0040878115    7.2659305       62.244       62.244       62.244 0.0061720569 0.0057035349 0.00038784272 
    1400    1.4660113    5.9639298    7.1154032 0.0057044769    7.3610551       62.244       62.244       62.244  0.010127594 0.0069169854 6.8851376e-05 
    1500    1.4026352    5.9693135    7.0710083 0.0085734748     7.440208       62.244       62.244       62.244 0.0065452962  0.012340426 0.0068347019 
    1600    1.4067903     5.975697    7.0806555 0.0054734007    7.3163566       62.244       62.244       62.244 -0.001955129  0.011850476 0.0065248553 
    1700    1.4148119    5.9548112    7.0660701 0.0042176318    7.2476941       62.244       62.244       62.244  0.003021493 0.0041490338 0.0054823686 
    1800    1.3984161    5.9511961     7.049577  0.010618474    7.5068406       62.244       62.244       62.244 0.0048365897  0.018355694 0.0086631377 
    1900    1.3740665     5.955697    7.0349526 0.0052547806    7.2612393       62.244       62.244       62.244 0.0018033687 0.0067900592 0.0071709139 
    2000    1.4427151    5.9340487    7.0672241 0.0044335242     7.258145       62.244       62.244       62.244 0.0052870637 0.0068061722 0.0012073368 
    2100    1.4280267    5.9481618    7.0698003 0.0092659998    7.4688222       62.244       62.244       62.244 0.0071460399 0.0070190708  0.013632889 
    2200    1.3808083    5.9537892    7.0383402 -0.0011654095    6.9881542       62.244       62.244       62.244 -0.00036959312 -0.0037975299 0.00067089444 
    2300    1.4069092    5.9446369    7.0496887 0.0076078859    7.3773072       62.244       62.244       62.244 0.0084916342 0.0053459449 0.0089860785 
    2400     1.429277    5.9480433    7.0706638 0.0061199937    7.3342092       62.244       62.244       62.244  0.002855344 0.0072542583  0.008250379 
    2500    1.3948047    5.9466935    7.0422378 0.0015628652    7.1095395       62.244       62.244       62.244 0.00024515514 0.0052702023 -0.00082676172 
    2600    1.3901038     5.937153     7.029005 0.0015081601     7.093951       62.244       62.244       62.244 0.00092961675 0.00073365502 0.0028612085 
    2700    1.3925603     5.938459    7.0322406 0.0019999403     7.118364       62.244       62.244       62.244 0.0052953117 0.0035244681 -0.002819959 
    2800    1.3880804    5.9292714    7.0195342 0.0060014615    7.2779753       62.244       62.244       62.244 0.0055084896  0.010842193 0.0016537015 
    2900    1.3945083     5.925954    7.0212655 0.0049176801    7.2330357       62.244       62.244       62.244 0.0056872038 0.0038455534 0.0052202829 
    3000    1.3962354    5.9280533    7.0247214 0.0023891661    7.1276061       62.244       62.244       62.244 0.0013588772 0.0021996957 0.0036089253 
    3100    1.3784838    5.9152388     6.997964 0.0050094186    7.2136847       62.244       62.244       62.244  0.004839131 0.0096113465 0.00057777816 
    3200    1.4058057    5.9116538    7.0158389 0.0027795609    7.1355351       62.244       62.244       62.244   0.00220354 0.0023289906 0.0038061521 
    3300    1.4270865    5.9058944    7.0267944 0.0033024988      7.16901       62.244       62.244       62.244  0.010633229 -0.0007298646  4.13228e-06 
    3400    1.4287572    5.9156933    7.0379055 0.0034275553    7.1855064       62.244       62.244       62.244 0.0059318616 0.0042543849 9.6419313e-05 
    3500     1.424229     5.904491    7.0231466 0.0061801134     7.289281       62.244       62.244       62.244 0.0065188777  0.005326469 0.0066949934 
    3600    1.3879086    5.9113839    7.0015117 -0.00057459378     6.976768       62.244       62.244       62.244 -0.00066760031 0.00085690466 -0.0019130857 
    3700    1.4068784    5.8959284     7.000956 0.0082686995    7.3570311       62.244       62.244       62.244 0.0084885636 0.0083078159 0.0080097189 
    3800    1.4221261    5.8926754    7.0096793 0.0044999555     7.203461       62.244       62.244       62.244 0.0078321132 0.0059897819 -0.00032202878 
    3900    1.3760824    5.8984035    6.9792424 0.0033510132    7.1235472       62.244       62.244       62.244 0.0023076062 0.00086980914 0.0068756244 
    4000    1.3715531    5.9102203    6.9875018 0.0046937365    7.1896283       62.244       62.244       62.244 0.0083093901 0.0053765508 0.00039526856 
    4100     1.385685    5.9023737    6.9907551 0.0011166911    7.0388432       62.244       62.244       62.244 0.00067979515 -0.0007794202 0.0034496984 
    4200    1.4043615    5.8998064    7.0028571 0.0094842346    7.4112768       62.244       62.244       62.244  0.010590242 0.0053067197  0.012555742 
    4300    1.4172259    5.8857051    6.9988601 0.0027850736    7.1187938       62.244       62.244       62.244 0.0060229948 0.0016478688 0.0006843571 
    4400    1.4237129    5.9087991    7.0270493 0.0042458314    7.2098876       62.244       62.244       62.244  0.005055326 0.00091893417 0.0067632341 
    4500    1.3817327    5.9107805    6.9960575  0.006455327    7.2740433       62.244       62.244       62.244 0.0054064245 0.0082961338 0.0056634228 
    4600    1.4149145    5.9040771    7.0154167  0.011826507    7.5247017       62.244       62.244       62.244  0.013466921  0.010073637  0.011938962 
    4700    1.4260941    5.9043306     7.024451 -0.0008707028     6.986956       62.244       62.244       62.244 0.0054961837 -0.0066731009 -0.0014351912 
    4800    1.3966553    5.8911113    6.9881092  0.010392799    7.4356545       62.244       62.244       62.244  0.011084169 0.0090272978  0.011066931 
    4900    1.3753185    5.8885299    6.9687689  0.010730422    7.4308532       62.244       62.244       62.244  0.015008065 0.0095575446 0.0076256575 
    5000    1.4013545     5.900503    7.0011919 -0.0041731819    6.8214821       62.244       62.244       62.244 -0.0072702147 -8.6139292e-05 -0.0051631917 
Loop time of 3.09603 on 8 procs for 5000 steps with 5600 atoms

Performance: 697668.331 tau/day, 1614.973 timesteps/s
98.8% CPU use with 8 MPI tasks x 1 OpenMP threads

MPI task timing breakdown:
Section |  min time  |  avg time  |  max time  |%varavg| %total
---------------------------------------------------------------
Pair    | 0.047096   | 0.074907   | 0.10606    |   8.9 |  2.42
Bond    | 0.02508    | 0.036582   | 0.04875    |   5.6 |  1.18
Neigh   | 0.37712    | 0.37909    | 0.38082    |   0.2 | 12.24
Comm    | 0.23671    | 0.27185    | 0.30451    |   5.4 |  8.78
Output  | 0.0031621  | 0.0037443  | 0.0043254  |   0.7 |  0.12
Modify  | 2.0718     | 2.1551     | 2.2255     |   3.7 | 69.61
Other   |            | 0.1747     |            |       |  5.64

Nlocal:    700 ave 947 max 472 min
Histogram: 3 1 0 0 0 0 0 0 1 3
Nghost:    449.625 ave 531 max 337 min
Histogram: 1 0 0 2 1 0 1 0 1 2
Neighs:    594 ave 916 max 302 min
Histogram: 2 1 1 0 0 0 0 2 1 1

Total # of neighbors = 4752
Ave neighs/atom = 0.848571
Ave special neighs/atom = 0.571429
Neighbor list builds = 761
Dangerous builds = 0

# Replace fix rigid and fix langevin with new ones

unfix	1
unfix	3

fix	3	tethers langevin 1.4 1.4 1.0 198450

# Test different integrators for rods

fix	1 rods	rigid/nve molecule
800 rigid bodies with 4000 atoms
print 	"rigid/nve"
rigid/nve
run	1000
Per MPI rank memory allocation (min/avg/max) = 7.09 | 7.272 | 7.457 Mbytes
Step Temp PotEng TotEng Press Enthalpy Lx Ly Lz Pxx Pyy Pzz 
    5000    1.4013545     5.900503    7.0011919 -0.0088534081    6.6199374       62.244       62.244       62.244 -0.038474586   0.04052875 -0.028614388 
    5100     1.398062    5.9004734    6.9985762 -0.0017280106    6.9241629       62.244       62.244       62.244 -0.00057997099 -0.0014038532 -0.0032002077 
    5200    1.4133542    5.8987816    7.0088957  0.004206958      7.19006       62.244       62.244       62.244 0.0074512872 0.0033420624 0.0018275245 
    5300    1.3868812    5.9041828    6.9935037 0.0050976969    7.2130259       62.244       62.244       62.244 0.0048679596 0.0030483006 0.0073768305 
    5400     1.395923    5.8871973      6.98362 0.00083363418    7.0195188       62.244       62.244       62.244 0.0061271656 -0.001448702 -0.0021775611 
    5500     1.411182    5.8777523    6.9861601   0.00635607    7.2598717       62.244       62.244       62.244  0.010670715 0.0051652139 0.0032322812 
    5600    1.4109499    5.8821805    6.9904061 0.0037785768     7.153123       62.244       62.244       62.244 0.0073854941 0.0025013119 0.0014489243 
    5700    1.3676092    5.9160598    6.9902435 0.0051218238    7.2108047       62.244       62.244       62.244 0.0028841257 0.0058533734 0.0066279723 
    5800     1.433082    5.8742862    6.9998953 0.00087869544    7.0377346       62.244       62.244       62.244 0.0040719276 -0.0018345682 0.0003987269 
    5900    1.4176179    5.8887188    7.0021817 0.0042145206    7.1836717       62.244       62.244       62.244 0.0010079093 0.0033982664 0.0082373861 
    6000    1.4079122    5.8784441    6.9842837  0.006430567    7.2612033       62.244       62.244       62.244 0.0077796836 0.0074584372 0.0040535802 
Loop time of 0.704346 on 8 procs for 1000 steps with 5600 atoms

Performance: 613335.130 tau/day, 1419.757 timesteps/s
99.0% CPU use with 8 MPI tasks x 1 OpenMP threads

MPI task timing breakdown:
Section |  min time  |  avg time  |  max time  |%varavg| %total
---------------------------------------------------------------
Pair    | 0.010657   | 0.020049   | 0.030452   |   5.3 |  2.85
Bond    | 0.0045583  | 0.0072269  | 0.010024   |   2.6 |  1.03
Neigh   | 0.082189   | 0.082567   | 0.083073   |   0.1 | 11.72
Comm    | 0.045788   | 0.057006   | 0.067728   |   3.5 |  8.09
Output  | 0.0005672  | 0.00072229 | 0.00080156 |   0.0 |  0.10
Modify  | 0.48224    | 0.49916    | 0.52025    |   1.9 | 70.87
Other   |            | 0.03761    |            |       |  5.34

Nlocal:    700 ave 945 max 470 min
Histogram: 4 0 0 0 0 0 0 0 2 2
Nghost:    425.875 ave 513 max 346 min
Histogram: 1 2 0 1 0 0 2 0 1 1
Neighs:    671.375 ave 1049 max 320 min
Histogram: 3 1 0 0 0 0 0 1 2 1

Total # of neighbors = 5371
Ave neighs/atom = 0.959107
Ave special neighs/atom = 0.571429
Neighbor list builds = 153
Dangerous builds = 0
unfix	1

fix	1 rods	rigid/nvt molecule temp 1.4 1.4 1.0
800 rigid bodies with 4000 atoms
print 	"rigid/nvt"
rigid/nvt
run	1000
Per MPI rank memory allocation (min/avg/max) = 7.09 | 7.273 | 7.457 Mbytes
Step Temp PotEng TotEng Press Enthalpy Lx Ly Lz Pxx Pyy Pzz 
    6000    1.4079122    5.8784441    6.9842837  0.013852722    7.5808237       62.244       62.244       62.244  0.017867024   0.05944409 -0.035752948 
    6100    1.3767448    5.8804559    6.9618151 0.0027584529    7.0806024       62.244       62.244       62.244 0.0016695702 0.0044106579 0.0021951305 
    6200    1.3933728    5.8758087    6.9702284 0.0041359805    7.1483362       62.244       62.244       62.244   0.00305488 0.0047561433 0.0045969182 
    6300    1.3943485    5.9013238    6.9965098 0.0013327793    7.0539033       62.244       62.244       62.244 0.0018024328 0.0029819423 -0.0007860372 
    6400    1.4409086    5.8790854    7.0108419 0.0079257351     7.352148       62.244       62.244       62.244 0.0046921909 0.0075689581  0.011516056 
    6500    1.4329815    5.8856862    7.0112164 -0.00064260312     6.983544       62.244       62.244       62.244 0.0014695275 -0.0034428857 4.5548898e-05 
    6600     1.416495    5.8964722    7.0090532 0.0071174704     7.315553       62.244       62.244       62.244 0.0048274975 0.0099495654 0.0065753483 
    6700    1.4089505    5.8978444    7.0044995 0.0026900159    7.1203397       62.244       62.244       62.244 0.0021619418 0.0010169329 0.0048911731 
    6800    1.3966942     5.889738    6.9867664 0.0062950329    7.2578495       62.244       62.244       62.244 0.0080776085 0.0059575589 0.0048499313 
    6900    1.4184263    5.8769253    6.9910231  0.004917094     7.202768       62.244       62.244       62.244 0.0025696778 0.0092233993 0.0029582048 
    7000    1.3958454    5.8911864    6.9875482 0.0060332256    7.2473571       62.244       62.244       62.244 0.0031965805  0.011628017 0.0032750795 
Loop time of 0.712079 on 8 procs for 1000 steps with 5600 atoms

Performance: 606674.472 tau/day, 1404.339 timesteps/s
98.8% CPU use with 8 MPI tasks x 1 OpenMP threads

MPI task timing breakdown:
Section |  min time  |  avg time  |  max time  |%varavg| %total
---------------------------------------------------------------
Pair    | 0.010575   | 0.020467   | 0.031038   |   5.5 |  2.87
Bond    | 0.0048025  | 0.0072287  | 0.0099087  |   2.5 |  1.02
Neigh   | 0.085024   | 0.085384   | 0.085711   |   0.1 | 11.99
Comm    | 0.044225   | 0.055534   | 0.065784   |   3.6 |  7.80
Output  | 0.00059175 | 0.00072804 | 0.00083399 |   0.0 |  0.10
Modify  | 0.49268    | 0.50879    | 0.52648    |   1.8 | 71.45
Other   |            | 0.03394    |            |       |  4.77

Nlocal:    700 ave 976 max 443 min
Histogram: 2 2 0 0 0 0 0 1 1 2
Nghost:    412.25 ave 493 max 350 min
Histogram: 2 2 0 0 1 0 0 1 1 1
Neighs:    675.875 ave 1078 max 326 min
Histogram: 2 0 1 1 0 1 0 1 0 2

Total # of neighbors = 5407
Ave neighs/atom = 0.965536
Ave special neighs/atom = 0.571429
Neighbor list builds = 155
Dangerous builds = 0
unfix	1

compute	myTemp all temp

fix	1 rods	rigid/npt molecule temp 1.4 1.4 1.0 iso 0.05 0.05 1.0         dilate all
800 rigid bodies with 4000 atoms
print 	"rigid/npt iso"
rigid/npt iso
fix_modify 1 temp myTemp

run	1000
Per MPI rank memory allocation (min/avg/max) = 7.09 | 7.273 | 7.457 Mbytes
Step Temp PotEng TotEng Press Enthalpy Lx Ly Lz Pxx Pyy Pzz 
    7000    1.3958454    5.8911864    6.9875482  0.039504439    8.6887285       62.244       62.244       62.244  0.019992912  0.024197639  0.074322765 
    7100    1.4456573    5.8635532    6.9990396  0.011641367    7.3850274    57.049595    57.049595    57.049595  0.012433708  0.013884279 0.0086061141 
    7200     1.518434    5.8225411    7.0151897  0.026095104    7.6058741    50.233661    50.233661    50.233661  0.022939709  0.029336258  0.026009345 
    7300    1.5534638    5.7975809    7.0177435  0.023898337    7.4107094       45.157       45.157       45.157  0.026327607  0.024729577  0.020637828 
    7400    1.6247352    5.7359019    7.0120444  0.033824825    7.4422021     41.45021     41.45021     41.45021  0.031525428  0.038471215  0.031477832 
    7500    1.5704476    5.7180766    6.9515791  0.013515213    7.0923193      38.7788      38.7788      38.7788 0.0045563018  0.023688689  0.012300647 
    7600    1.5354207    5.6809295    6.8869202    0.0322444    7.1711954    36.685201    36.685201    36.685201  0.030674633  0.024609416  0.041449152 
    7700    1.5725294     5.639268    6.8744056  0.035977761    7.1523046    35.103221    35.103221    35.103221  0.034461136  0.030073788   0.04339836 
    7800    1.5225475     5.613083    6.8089625  0.033219516    7.0384974    33.823184    33.823184    33.823184  0.034706328  0.036466676  0.028485545 
    7900    1.5154641    5.5734131    6.7637289  0.046952152    7.0615669    32.872864    32.872864    32.872864  0.028974505    0.0483531  0.063528851 
    8000    1.4937158    5.5371433    6.7103771  0.036142602    6.9271062    32.262297    32.262297    32.262297   0.04454039  0.043394578  0.020492838 
Loop time of 1.14364 on 8 procs for 1000 steps with 5600 atoms

Performance: 377741.362 tau/day, 874.401 timesteps/s
98.8% CPU use with 8 MPI tasks x 1 OpenMP threads

MPI task timing breakdown:
Section |  min time  |  avg time  |  max time  |%varavg| %total
---------------------------------------------------------------
Pair    | 0.027566   | 0.053956   | 0.081141   |   8.4 |  4.72
Bond    | 0.0072665  | 0.01035    | 0.01429    |   2.8 |  0.91
Neigh   | 0.31145    | 0.31235    | 0.31361    |   0.1 | 27.31
Comm    | 0.077097   | 0.10541    | 0.13346    |   6.4 |  9.22
Output  | 0.00054526 | 0.00058666 | 0.00080395 |   0.0 |  0.05
Modify  | 0.60453    | 0.62198    | 0.64315    |   1.7 | 54.39
Other   |            | 0.03902    |            |       |  3.41

Nlocal:    700 ave 944 max 482 min
Histogram: 2 2 0 0 0 0 0 1 2 1
Nghost:    981.375 ave 1140 max 866 min
Histogram: 2 2 0 0 1 0 1 0 1 1
Neighs:    3145.25 ave 4997 max 1391 min
Histogram: 2 0 2 0 0 1 0 1 0 2

Total # of neighbors = 25162
Ave neighs/atom = 4.49321
Ave special neighs/atom = 0.571429
Neighbor list builds = 336
Dangerous builds = 0
unfix	1

fix	1 rods	rigid/npt molecule temp 1.4 1.4 1.0 x 0.05 0.05 1.0 dilate all
800 rigid bodies with 4000 atoms
print 	"rigid/npt x"
rigid/npt x
run	1000
Per MPI rank memory allocation (min/avg/max) = 7.093 | 7.281 | 7.472 Mbytes
Step Temp PotEng TotEng Press Enthalpy Lx Ly Lz Pxx Pyy Pzz 
    8000    1.4937158    5.5371433    6.7103771  0.092944424    7.2677183    32.262297    32.262297    32.262297   0.38215342  -0.18459297  0.081272824 
    8100    1.4566807    5.5282128    6.6723574  0.054128815    6.9946096     32.03058    32.262297    32.262297  0.021201454  0.084152823  0.057032169 
    8200    1.4502116    5.5187754    6.6578389  0.038841374    6.8834449    31.250244    32.262297    32.262297  0.027621407  0.041090502  0.047812213 
    8300    1.4559101    5.4794068    6.6229461  0.058304274    6.9531991    30.475001    32.262297    32.262297   0.03129492  0.085623896  0.057994008 
    8400    1.4452543    5.4517514    6.5869212  0.055076881    6.8929411     29.89357    32.262297    32.262297  0.074347298  0.050338769  0.040544577 
    8500    1.4520198    5.4124219    6.5529057  0.054290663    6.8509523    29.536327    32.262297    32.262297  0.039007554  0.097372063  0.026492371 
    8600    1.4099104    5.4234672    6.5308763  0.039370554    6.7447772    29.230653    32.262297    32.262297  0.044182472 -0.0066202736  0.080549464 
    8700    1.4351877    5.3985374    6.5258004  0.030962199    6.6915023    28.793415    32.262297    32.262297 -0.0041079139  0.025266784  0.071727727 
    8800    1.4094751    5.3883368     6.495404  0.028303698    6.6442463    28.293125    32.262297    32.262297  0.018265057  0.024857126   0.04178891 
    8900    1.4421703    5.3497196    6.4824671   0.05303596    6.7564517    27.794138    32.262297    32.262297  0.074552192  0.050016918  0.034538771 
    9000    1.4294277    5.3306637    6.4534026 -0.0015270975    6.4456495    27.315396    32.262297    32.262297 -0.0043578036  0.018749177 -0.018972666 
Loop time of 1.11743 on 8 procs for 1000 steps with 5600 atoms

Performance: 386602.769 tau/day, 894.914 timesteps/s
98.7% CPU use with 8 MPI tasks x 1 OpenMP threads

MPI task timing breakdown:
Section |  min time  |  avg time  |  max time  |%varavg| %total
---------------------------------------------------------------
Pair    | 0.052464   | 0.088539   | 0.12778    |  10.2 |  7.92
Bond    | 0.0077605  | 0.010402   | 0.013471   |   2.4 |  0.93
Neigh   | 0.22815    | 0.22877    | 0.22978    |   0.1 | 20.47
Comm    | 0.084617   | 0.12401    | 0.16081    |   8.8 | 11.10
Output  | 0.00052643 | 0.00056919 | 0.00079441 |   0.0 |  0.05
Modify  | 0.61516    | 0.62967    | 0.64798    |   1.4 | 56.35
Other   |            | 0.03546    |            |       |  3.17

Nlocal:    700 ave 923 max 514 min
Histogram: 3 1 0 0 0 0 0 2 0 2
Nghost:    1057 ave 1211 max 873 min
Histogram: 1 0 0 3 1 0 0 0 1 2
Neighs:    4021.62 ave 6199 max 2069 min
Histogram: 2 1 1 0 0 0 1 1 0 2

Total # of neighbors = 32173
Ave neighs/atom = 5.74518
Ave special neighs/atom = 0.571429
Neighbor list builds = 170
Dangerous builds = 0
unfix	1

fix	1 rods	rigid/nph molecule iso 0.05 0.05 1.0 dilate all
800 rigid bodies with 4000 atoms
print 	"rigid/nph iso"
rigid/nph iso
run	1000
Per MPI rank memory allocation (min/avg/max) = 7.094 | 7.285 | 7.474 Mbytes
Step Temp PotEng TotEng Press Enthalpy Lx Ly Lz Pxx Pyy Pzz 
    9000    1.4294277    5.3306637    6.4534026   0.25369436    7.7414175    27.315396    32.262297    32.262297  0.091328787   0.49807466   0.17167963 
    9100    1.4518806     5.320411    6.4607854  0.067153963    6.7973962    27.199208    32.125067    32.125067  0.066338096  0.036247483  0.098876309 
    9200    1.4338877     5.313671     6.439913  0.068851414     6.778206    27.018685    31.911851    31.911851  0.045739685  0.079757853  0.081056704 
    9300    1.4341567    5.2900374    6.4164907  0.014689737     6.487508    26.873295    31.740131    31.740131  0.057092495  0.022282801 -0.035306085 
    9400    1.4506777    5.2850715    6.4245012  0.014590543    6.4940136    26.742445    31.585583    31.585583  0.042732568 -0.011530329   0.01256939 
    9500    1.4421895    5.2707314     6.403494  0.045693237    6.6168847    26.565132    31.376158    31.376158  0.055759301  0.070810277  0.010510133 
    9600    1.4388115    5.2768928    6.4070021  0.061120971    6.6874017    26.407857      31.1904      31.1904  0.079462693  0.063909485  0.039990735 
    9700    1.4279867    5.2544318    6.3760388   0.13054953    6.9645712    26.254425    31.009181    31.009181   0.13743873   0.10704111   0.14716877 
    9800    1.4486202    5.2452128    6.3830264  0.040589289     6.563864    26.151497    30.887612    30.887612  0.047996483 0.0089422892  0.064829096 
    9900    1.4404324    5.2323146    6.3636971  0.049941796    6.5837389    26.054605    30.773173    30.773173  0.054457652   0.07995437  0.015413367 
   10000    1.4357553    5.2287582    6.3564671  0.003870743    6.3731847    25.882013    30.569324    30.569324 -0.043898928  0.018191338  0.037319819 
Loop time of 1.14909 on 8 procs for 1000 steps with 5600 atoms

Performance: 375949.735 tau/day, 870.254 timesteps/s
98.7% CPU use with 8 MPI tasks x 1 OpenMP threads

MPI task timing breakdown:
Section |  min time  |  avg time  |  max time  |%varavg| %total
---------------------------------------------------------------
Pair    | 0.060333   | 0.10408    | 0.15178    |  11.2 |  9.06
Bond    | 0.0073986  | 0.010409   | 0.013078   |   2.3 |  0.91
Neigh   | 0.24504    | 0.24559    | 0.24609    |   0.1 | 21.37
Comm    | 0.08859    | 0.13665    | 0.18072    |   9.8 | 11.89
Output  | 0.00052929 | 0.00057399 | 0.00081086 |   0.0 |  0.05
Modify  | 0.6054     | 0.61852    | 0.63244    |   1.3 | 53.83
Other   |            | 0.03327    |            |       |  2.90

Nlocal:    700 ave 912 max 516 min
Histogram: 2 1 1 0 0 0 1 0 2 1
Nghost:    1120.12 ave 1261 max 958 min
Histogram: 1 1 0 1 1 1 0 0 1 2
Neighs:    4714.5 ave 7425 max 2554 min
Histogram: 2 1 1 0 0 1 0 2 0 1

Total # of neighbors = 37716
Ave neighs/atom = 6.735
Ave special neighs/atom = 0.571429
Neighbor list builds = 161
Dangerous builds = 0
unfix	1

fix	1 rods	rigid/nph molecule x 0.05 0.05 1.0 y 0.05 0.05 1.0         couple xy dilate all
800 rigid bodies with 4000 atoms
print 	"rigid/nph xy couple"
rigid/nph xy couple
run	1000
Per MPI rank memory allocation (min/avg/max) = 7.095 | 7.285 | 7.475 Mbytes
Step Temp PotEng TotEng Press Enthalpy Lx Ly Lz Pxx Pyy Pzz 
   10000    1.4357553    5.2287582    6.3564671   0.03104867    6.4905658    25.882013    30.569324    30.569324    0.1893712  -0.43088055   0.33465536 
   10100    1.4145848    5.2267877    6.3378683 0.0031188304     6.351218    25.765986    30.432285    30.569324  0.026055331  0.020628483 -0.037327323 
   10200    1.4510022    5.2061309    6.3458154  0.092083121    6.7328863    25.533625    30.157843    30.569324   0.12018316  0.075794906  0.080271301 
   10300    1.4834595    5.1863206    6.3514986  0.066946827    6.6313761    25.463973    30.075575    30.569324  0.012351107  0.093004805  0.095484568 
   10400    1.4172059    5.2125719    6.3257113   0.05311663    6.5484911    25.505265    30.124347    30.569324   0.08172584  0.039379324  0.038244725 
   10500     1.431381    5.2084142    6.3326873  0.025386602    6.4397368    25.573925     30.20544    30.569324  0.073059159 0.00017949137 0.0029211546 
   10600    1.4009208    5.2208991    6.3212473  0.026292487    6.4325355    25.622172    30.262425    30.569324 -0.0078910823   0.01255656  0.074211984 
   10700    1.4171993    5.1720866    6.2852208   0.11553187    6.7707611    25.531066     30.15482    30.569324   0.12552843   0.11655859   0.10450859 
   10800    1.4283094    5.1944064    6.3162669 0.0067633957    6.3445074    25.448432     30.05722    30.569324  0.013355474  0.033437342 -0.026502629 
   10900    1.4436992    5.1685348    6.3024832 -0.019175878    6.2232254    25.319236    29.904626    30.569324 -0.0020865198 -0.0071993927 -0.048241721 
   11000    1.4214759    5.1545089    6.2710021  0.094818772    6.6548512     25.05765    29.595667    30.569324  0.054749834   0.14299137  0.086715113 
Loop time of 1.17195 on 8 procs for 1000 steps with 5600 atoms

Performance: 368616.620 tau/day, 853.279 timesteps/s
98.8% CPU use with 8 MPI tasks x 1 OpenMP threads

MPI task timing breakdown:
Section |  min time  |  avg time  |  max time  |%varavg| %total
---------------------------------------------------------------
Pair    | 0.07392    | 0.11203    | 0.16057    |   9.8 |  9.56
Bond    | 0.0080268  | 0.01043    | 0.0133     |   2.0 |  0.89
Neigh   | 0.25685    | 0.25738    | 0.25775    |   0.1 | 21.96
Comm    | 0.086465   | 0.13601    | 0.17437    |   8.9 | 11.61
Output  | 0.00053883 | 0.00058094 | 0.00080156 |   0.0 |  0.05
Modify  | 0.61092    | 0.62411    | 0.63781    |   1.2 | 53.25
Other   |            | 0.03141    |            |       |  2.68

Nlocal:    700 ave 835 max 527 min
Histogram: 1 0 3 0 0 0 0 0 1 3
Nghost:    1138.12 ave 1276 max 977 min
Histogram: 2 0 0 1 1 1 0 0 1 2
Neighs:    5021.5 ave 6776 max 2948 min
Histogram: 1 1 1 1 0 0 0 1 0 3

Total # of neighbors = 40172
Ave neighs/atom = 7.17357
Ave special neighs/atom = 0.571429
Neighbor list builds = 155
Dangerous builds = 0

Total wall time: 0:00:09
