LAMMPS (4 Jan 2019)
# Tethered nanorods

atom_style	molecular

read_data	data.rigid.tnr
  orthogonal box = (-31.122 -31.122 -31.122) to (31.122 31.122 31.122)
  2 by 2 by 2 MPI processor grid
  reading atoms ...
  5600 atoms
  scanning bonds ...
  1 = max bonds/atom
  reading bonds ...
  1600 bonds
  2 = max # of 1-2 neighbors
  1 = max # of 1-3 neighbors
  1 = max # of 1-4 neighbors
  2 = max # of special neighbors

# Specify bond parameters

bond_style	fene
bond_coeff	1 30.0 1.5 1.0 1.0

special_bonds	fene
  2 = max # of 1-2 neighbors
  2 = max # of special neighbors

# Specify initial velocities

velocity	all create 1.4 109345

# Specify rigid components

group		rods type 2
4000 atoms in group rods
group		tethers	subtract all rods
1600 atoms in group tethers

neigh_modify 	exclude	molecule/intra rods delay 0 every 1

# Specify the pair potentials

pair_style	lj/cut	2.5
pair_modify	shift	yes
pair_coeff	* * 1.0	1.0 1.122
pair_coeff	2 2 1.0 1.0 2.5

# Specify output

thermo	100
thermo_style custom step temp pe etotal press enthalpy lx ly lz pxx pyy pzz
thermo_modify flush yes lost warn

timestep	0.005

fix	1	rods	rigid molecule
800 rigid bodies with 4000 atoms
fix	2	tethers	nve
fix	3	all	langevin 1.4 1.4 1.0 437624

run	5000
Neighbor list info ...
  update every 1 steps, delay 0 steps, check yes
  max neighbors/atom: 2000, page size: 100000
  master list distance cutoff = 2.8
  ghost atom cutoff = 2.8
  binsize = 1.4, bins = 45 45 45
  1 neighbor lists, perpetual/occasional/extra = 1 0 0
  (1) pair lj/cut, perpetual
      attributes: half, newton on
      pair build: half/bin/newton
      stencil: half/bin/3d/newton
      bin: standard
Per MPI rank memory allocation (min/avg/max) = 7.089 | 7.268 | 7.446 Mbytes
Step Temp PotEng TotEng Press Enthalpy Lx Ly Lz Pxx Pyy Pzz 
       0    1.3963219    5.9478449    7.0445809  0.048565317      9.13595       62.244       62.244       62.244 0.0091983659   0.11850113  0.017996458 
     100    1.3815526    5.9617944      7.04693  0.023057124    8.0398393       62.244       62.244       62.244 0.0062946496  0.046495566  0.016381157 
     200    1.3865483    5.9871855    7.0762449 0.00056516442    7.1005826       62.244       62.244       62.244 -0.0075237322 0.0054216692 0.0037975562 
     300    1.3881513    5.9822898    7.0726083 0.0069920835    7.3737085       62.244       62.244       62.244 0.0080307095 0.0024605856  0.010484955 
     400    1.3805188    5.9896219    7.0739454  0.014454006    7.6963785       62.244       62.244       62.244  0.020977338  0.010990028  0.011394651 
     500    1.4139549    5.9815744    7.0921603 0.0035537046    7.2451935       62.244       62.244       62.244 -0.00097348887 0.0071875143 0.0044470884 
     600    1.3849993    5.9847195    7.0725623 0.0087253257    7.4483011       62.244       62.244       62.244 0.0079522284 0.0071948805  0.011028868 
     700    1.4201424     5.983008    7.0984538  0.012879614    7.6530889       62.244       62.244       62.244   0.01358885  0.014514751  0.010535243 
     800    1.4050078    5.9843793    7.0879377 0.0015832909    7.1561189       62.244       62.244       62.244 -0.00068884329 -3.9037004e-05  0.005477753 
     900    1.4070664    5.9885704    7.0937457 0.0090288859    7.4825568       62.244       62.244       62.244 0.0051642561   0.01088401  0.011038392 
    1000    1.3958895    5.9754363    7.0718328 -0.0014006857     7.011515       62.244       62.244       62.244 -0.0068594786 0.0012349667 0.0014224548 
    1100     1.434154    5.9670293    7.0934805 0.0030926151    7.2266578       62.244       62.244       62.244 0.0048951745 0.00045967423 0.0039229966 
    1200    1.4136038    5.9814389     7.091749 -3.1932522e-05    7.0903739       62.244       62.244       62.244 0.0010331081 0.0004654415 -0.0015943471 
    1300      1.42463    5.9709265     7.089897 0.0040878115    7.2659305       62.244       62.244       62.244 0.0061720569 0.0057035349 0.00038784272 
    1400    1.4660113    5.9639298    7.1154032 0.0057044769    7.3610551       62.244       62.244       62.244  0.010127594 0.0069169854 6.8851376e-05 
    1500    1.4026352    5.9693135    7.0710083 0.0085734748     7.440208       62.244       62.244       62.244 0.0065452962  0.012340426 0.0068347019 
    1600    1.4067903     5.975697    7.0806555 0.0054734007    7.3163566       62.244       62.244       62.244 -0.001955129  0.011850476 0.0065248553 
    1700    1.4148119    5.9548112    7.0660701 0.0042176318    7.2476941       62.244       62.244       62.244  0.003021493 0.0041490338 0.0054823686 
    1800    1.3984161    5.9511961     7.049577  0.010618474    7.5068406       62.244       62.244       62.244 0.0048365897  0.018355694 0.0086631377 
    1900    1.3740665     5.955697    7.0349526 0.0052547806    7.2612393       62.244       62.244       62.244 0.0018033687 0.0067900592 0.0071709139 
    2000    1.4427151    5.9340487    7.0672241 0.0044335242     7.258145       62.244       62.244       62.244 0.0052870637 0.0068061722 0.0012073368 
    2100    1.4280267    5.9481618    7.0698003 0.0092659998    7.4688222       62.244       62.244       62.244 0.0071460399 0.0070190708  0.013632889 
    2200    1.3808083    5.9537892    7.0383402 -0.0011654095    6.9881542       62.244       62.244       62.244 -0.00036959312 -0.0037975299 0.00067089444 
    2300    1.4069092    5.9446369    7.0496887 0.0076078859    7.3773072       62.244       62.244       62.244 0.0084916342 0.0053459449 0.0089860785 
    2400     1.429277    5.9480433    7.0706638 0.0061199937    7.3342092       62.244       62.244       62.244  0.002855344 0.0072542583  0.008250379 
    2500    1.3948047    5.9466935    7.0422378 0.0015628652    7.1095395       62.244       62.244       62.244 0.00024515514 0.0052702023 -0.00082676172 
    2600    1.3901038     5.937153     7.029005 0.0015081601     7.093951       62.244       62.244       62.244 0.00092961675 0.00073365502 0.0028612085 
    2700    1.3925603     5.938459    7.0322406 0.0019999403     7.118364       62.244       62.244       62.244 0.0052953117 0.0035244681 -0.002819959 
    2800    1.3880804    5.9292714    7.0195342 0.0060014615    7.2779753       62.244       62.244       62.244 0.0055084896  0.010842193 0.0016537015 
    2900    1.3945083     5.925954    7.0212655   0.00491768    7.2330357       62.244       62.244       62.244 0.0056872038 0.0038455534 0.0052202829 
    3000    1.3962354    5.9280533    7.0247214  0.002389166    7.1276061       62.244       62.244       62.244 0.0013588772 0.0021996957 0.0036089253 
    3100    1.3784838    5.9152388     6.997964 0.0050094186    7.2136847       62.244       62.244       62.244  0.004839131 0.0096113465 0.00057777817 
    3200    1.4058057    5.9116538    7.0158389 0.0027795609    7.1355351       62.244       62.244       62.244   0.00220354 0.0023289906 0.0038061521 
    3300    1.4270865    5.9058944    7.0267944 0.0033024989      7.16901       62.244       62.244       62.244  0.010633229 -0.00072986455 4.1323037e-06 
    3400    1.4287572    5.9156933    7.0379055 0.0034275553    7.1855064       62.244       62.244       62.244 0.0059318616 0.0042543849 9.6419309e-05 
    3500     1.424229     5.904491    7.0231466 0.0061801137     7.289281       62.244       62.244       62.244  0.006518878 0.0053264697 0.0066949934 
    3600    1.3879086    5.9113839    7.0015117 -0.00057459395     6.976768       62.244       62.244       62.244 -0.00066760029 0.00085690422 -0.0019130858 
    3700    1.4068784    5.8959284     7.000956 0.0082686994    7.3570311       62.244       62.244       62.244 0.0084885634 0.0083078157  0.008009719 
    3800    1.4221261    5.8926754    7.0096793 0.0044999555     7.203461       62.244       62.244       62.244 0.0078321135 0.0059897818 -0.00032202878 
    3900    1.3760824    5.8984035    6.9792424 0.0033510132    7.1235472       62.244       62.244       62.244 0.0023076065 0.00086980941 0.0068756238 
    4000    1.3715531    5.9102203    6.9875018 0.0046937317    7.1896281       62.244       62.244       62.244 0.0083093867 0.0053765454 0.00039526317 
    4100     1.385685    5.9023738    6.9907551 0.0011166848    7.0388429       62.244       62.244       62.244 0.00067979406 -0.00077942786 0.0034496882 
    4200    1.4043615    5.8998064    7.0028571  0.009484246    7.4112773       62.244       62.244       62.244  0.010590241 0.0053067442  0.012555753 
    4300    1.4172259    5.8857051    6.9988602  0.002785073    7.1187938       62.244       62.244       62.244  0.006022993 0.0016478759 0.00068435004 
    4400     1.423713     5.908799    7.0270493 0.0042458353    7.2098878       62.244       62.244       62.244 0.0050553434 0.00091893435 0.0067632282 
    4500    1.3817327    5.9107804    6.9960574 0.0064553142    7.2740427       62.244       62.244       62.244 0.0054063841 0.0082961526 0.0056634058 
    4600    1.4149148    5.9040764    7.0154162   0.01182619    7.5246876       62.244       62.244       62.244  0.013466332  0.010073338  0.011938902 
    4700    1.4260942    5.9043286    7.0244493 -0.00087073914    6.9869526       62.244       62.244       62.244 0.0054959883 -0.0066730471 -0.0014351586 
    4800    1.3966577    5.8911114    6.9881112    0.0103926    7.4356479       62.244       62.244       62.244  0.011083387 0.0090273982  0.011067014 
    4900    1.3753216    5.8885311    6.9687725  0.010729914    7.4308349       62.244       62.244       62.244  0.015007551 0.0095563532  0.007625838 
    5000     1.401355    5.9005087     7.001198 -0.0041722315    6.8215291       62.244       62.244       62.244 -0.0072696558 -8.56448e-05 -0.005161394 
Loop time of 3.02856 on 8 procs for 5000 steps with 5600 atoms

Performance: 713210.820 tau/day, 1650.951 timesteps/s
96.7% CPU use with 8 MPI tasks x no OpenMP threads

MPI task timing breakdown:
Section |  min time  |  avg time  |  max time  |%varavg| %total
---------------------------------------------------------------
Pair    | 0.036667   | 0.063737   | 0.09305    |   9.2 |  2.10
Bond    | 0.01613    | 0.02434    | 0.033169   |   4.6 |  0.80
Neigh   | 0.3078     | 0.30999    | 0.31214    |   0.3 | 10.24
Comm    | 0.2538     | 0.28331    | 0.31116    |   4.3 |  9.35
Output  | 0.0022943  | 0.0026563  | 0.0030158  |   0.5 |  0.09
Modify  | 2.1684     | 2.229      | 2.278      |   2.7 | 73.60
Other   |            | 0.1155     |            |       |  3.81

Nlocal:    700 ave 947 max 472 min
Histogram: 3 1 0 0 0 0 0 0 1 3
Nghost:    449.625 ave 531 max 337 min
Histogram: 1 0 0 2 1 0 1 0 1 2
Neighs:    594 ave 916 max 302 min
Histogram: 2 1 1 0 0 0 0 2 1 1

Total # of neighbors = 4752
Ave neighs/atom = 0.848571
Ave special neighs/atom = 0.571429
Neighbor list builds = 761
Dangerous builds = 0

# Replace fix rigid and fix langevin with new ones

unfix	1
unfix	3

fix	3	tethers langevin 1.4 1.4 1.0 198450

# Test different integrators for rods

fix	1 rods	rigid/nve molecule
800 rigid bodies with 4000 atoms
print 	"rigid/nve"
rigid/nve
run	1000
Per MPI rank memory allocation (min/avg/max) = 7.09 | 7.272 | 7.457 Mbytes
Step Temp PotEng TotEng Press Enthalpy Lx Ly Lz Pxx Pyy Pzz 
    5000     1.401355    5.9005087     7.001198 -0.0088491963    6.6201249       62.244       62.244       62.244 -0.038506704  0.040506636 -0.028547521 
    5100    1.3980562    5.9004827    6.9985809 -0.0017286889    6.9241384       62.244       62.244       62.244 -0.0005793337 -0.0014042296 -0.0032025035 
    5200    1.4133614    5.8987831    7.0089028 0.0042081408     7.190118       62.244       62.244       62.244 0.0074538523 0.0033416458 0.0018289244 
    5300    1.3868644    5.9042067    6.9935144 0.0050889784    7.2126612       62.244       62.244       62.244 0.0048662168  0.003040461 0.0073602575 
    5400    1.3959242    5.8871511    6.9835748 0.00085150271     7.020243       62.244       62.244       62.244 0.0061418637 -0.0014374642 -0.0021498914 
    5500    1.4111916    5.8777423    6.9861577 0.0063567907    7.2599003       62.244       62.244       62.244  0.010675161 0.0051672167  0.003227994 
    5600    1.3988614    5.8815857    6.9803164 0.0050031536    7.1957673       62.244       62.244       62.244 0.0078406277 0.0030855967 0.0040832365 
    5700    1.3802305    5.8934187    6.9775158 0.0061320349    7.2415798       62.244       62.244       62.244 0.0088270299 0.0046972865 0.0048717884 
    5800    1.4094897    5.8925486    6.9996272 0.0011249744     7.048072       62.244       62.244       62.244 -0.00056743716  0.006769294 -0.0028269337 
    5900    1.3795622     5.889791    6.9733632 -0.0019537541    6.8892286       62.244       62.244       62.244 -0.0056415198 0.00017690159 -0.00039664406 
    6000    1.3953373    5.8895983     6.985561 0.0066263417    7.2709112       62.244       62.244       62.244 0.0059727935 0.0071291536 0.0067770781 
Loop time of 0.729438 on 8 procs for 1000 steps with 5600 atoms

Performance: 592236.669 tau/day, 1370.918 timesteps/s
97.0% CPU use with 8 MPI tasks x no OpenMP threads

MPI task timing breakdown:
Section |  min time  |  avg time  |  max time  |%varavg| %total
---------------------------------------------------------------
Pair    | 0.0086158  | 0.016947   | 0.025703   |   4.7 |  2.32
Bond    | 0.0028602  | 0.0046874  | 0.0062519  |   1.8 |  0.64
Neigh   | 0.071127   | 0.071457   | 0.071845   |   0.1 |  9.80
Comm    | 0.047552   | 0.056776   | 0.065394   |   2.6 |  7.78
Output  | 0.00043397 | 0.00048969 | 0.00054434 |   0.0 |  0.07
Modify  | 0.5039     | 0.52421    | 0.57115    |   3.0 | 71.86
Other   |            | 0.05487    |            |       |  7.52

Nlocal:    700 ave 939 max 475 min
Histogram: 4 0 0 0 0 0 0 0 1 3
Nghost:    426.875 ave 530 max 359 min
Histogram: 2 1 1 0 1 0 2 0 0 1
Neighs:    679.25 ave 1074 max 316 min
Histogram: 3 1 0 0 0 0 1 0 1 2

Total # of neighbors = 5434
Ave neighs/atom = 0.970357
Ave special neighs/atom = 0.571429
Neighbor list builds = 151
Dangerous builds = 0
unfix	1

fix	1 rods	rigid/nvt molecule temp 1.4 1.4 1.0
800 rigid bodies with 4000 atoms
print 	"rigid/nvt"
rigid/nvt
run	1000
Per MPI rank memory allocation (min/avg/max) = 7.09 | 7.273 | 7.457 Mbytes
Step Temp PotEng TotEng Press Enthalpy Lx Ly Lz Pxx Pyy Pzz 
    6000    1.3953373    5.8895983     6.985561  0.014183614    7.5963502       62.244       62.244       62.244  0.023628134 -0.0054608714   0.02438358 
    6100    1.4129528    5.8737756    6.9835743 0.0054006988    7.2161447       62.244       62.244       62.244 0.0070338776 0.0057478122 0.0034204066 
    6200    1.4209694    5.8781646      6.99426 0.0069970293    7.2955732       62.244       62.244       62.244 0.0037443246 0.0038796653  0.013367098 
    6300    1.4087565    5.8874714    6.9939742 0.0033245687    7.1371401       62.244       62.244       62.244 0.0017182814 0.0032826614 0.0049727632 
    6400    1.3954926    5.8920213     6.988106  0.007241679    7.2999545       62.244       62.244       62.244 0.0085413424 0.0052791756  0.007904519 
    6500    1.4175869    5.8845232    6.9979618 0.0022398706    7.0944174       62.244       62.244       62.244 0.0056806327 0.0015144141 -0.0004754349 
    6600    1.4185519    5.8928208    7.0070174 0.0038449856    7.1725941       62.244       62.244       62.244 0.0010693801 0.0077445197 0.0027210569 
    6700    1.4021389     5.892214     6.993519 0.0009378494    7.0339056       62.244       62.244       62.244 -0.0025192078 0.00094717804  0.004385578 
    6800    1.4042588    5.8889281    6.9918981 0.0082123425    7.3455464       62.244       62.244       62.244 0.0044060508  0.011854955 0.0083760215 
    6900     1.412542     5.883785     6.993261 0.0076527997    7.3228137       62.244       62.244       62.244 0.0097065332  0.006566009  0.006685857 
    7000    1.3908588    5.8847525    6.9771976 0.0063661054    7.2513413       62.244       62.244       62.244 0.0040948224 0.0043050225  0.010698471 
Loop time of 0.739945 on 8 procs for 1000 steps with 5600 atoms

Performance: 583827.089 tau/day, 1351.452 timesteps/s
96.5% CPU use with 8 MPI tasks x no OpenMP threads

MPI task timing breakdown:
Section |  min time  |  avg time  |  max time  |%varavg| %total
---------------------------------------------------------------
Pair    | 0.0088192  | 0.017707   | 0.026894   |   5.1 |  2.39
Bond    | 0.0031262  | 0.0046985  | 0.0060809  |   1.7 |  0.63
Neigh   | 0.068497   | 0.068861   | 0.069307   |   0.1 |  9.31
Comm    | 0.047033   | 0.055425   | 0.064519   |   2.9 |  7.49
Output  | 0.0004568  | 0.00050447 | 0.00055801 |   0.0 |  0.07
Modify  | 0.51365    | 0.53631    | 0.5849     |   3.3 | 72.48
Other   |            | 0.05644    |            |       |  7.63

Nlocal:    700 ave 900 max 483 min
Histogram: 3 1 0 0 0 0 0 0 0 4
Nghost:    422.875 ave 506 max 343 min
Histogram: 3 0 1 0 0 0 0 1 0 3
Neighs:    696 ave 1103 max 312 min
Histogram: 3 0 0 1 0 0 1 0 1 2

Total # of neighbors = 5568
Ave neighs/atom = 0.994286
Ave special neighs/atom = 0.571429
Neighbor list builds = 150
Dangerous builds = 0
unfix	1

compute	myTemp all temp

fix	1 rods	rigid/npt molecule temp 1.4 1.4 1.0 iso 0.05 0.05 1.0         dilate all
800 rigid bodies with 4000 atoms
print 	"rigid/npt iso"
rigid/npt iso
fix_modify 1 temp myTemp

run	1000
Per MPI rank memory allocation (min/avg/max) = 7.09 | 7.273 | 7.457 Mbytes
Step Temp PotEng TotEng Press Enthalpy Lx Ly Lz Pxx Pyy Pzz 
    7000    1.3908588    5.8847525    6.9771976 -0.036169687    5.4196218       62.244       62.244       62.244  -0.10986697 -0.00090958129 0.0022674905 
    7100    1.4431052    5.8508367    6.9843185  0.020466765    7.6609381    56.993824    56.993824    56.993824  0.020787008  0.021764071  0.018849218 
    7200    1.5156195    5.8235895    7.0140275  0.012499412    7.2986974    50.336152    50.336152    50.336152  0.021280062  0.014369199  0.001848976 
    7300    1.5790254    5.7851605    7.0254003  0.034449177    7.5977202     45.31229     45.31229     45.31229  0.035799893  0.039442491  0.028105148 
    7400     1.594869    5.7500382    7.0027224  0.042054481    7.5462734    41.674656    41.674656    41.674656  0.031648964   0.03458804  0.059926438 
    7500    1.5718705    5.7181853    6.9528054  0.036492799    7.3374394    38.935239    38.935239    38.935239  0.020596897  0.043649516  0.045231984 
    7600    1.5455147    5.6725895    6.8865085  0.052821011    7.3561498    36.788821    36.788821    36.788821  0.054430587  0.057319062  0.046713383 
    7700    1.5462853    5.6250175    6.8395418  0.056196736    7.2724457    35.071646    35.071646    35.071646  0.063590407  0.059076447  0.045923355 
    7800    1.5342466    5.5861485     6.791217  0.027320083    6.9804213    33.848988    33.848988    33.848988  0.028875069  0.011181658  0.041903523 
    7900    1.5016811    5.5572384    6.7367285   0.08518724    7.2774528    32.879848    32.879848    32.879848   0.11716757  0.087057469   0.05133668 
    8000     1.506981    5.5180892    6.7017421  0.036430823    6.9175649    32.132078    32.132078    32.132078  0.026088632  0.058855989  0.024347848 
Loop time of 1.14171 on 8 procs for 1000 steps with 5600 atoms

Performance: 378378.588 tau/day, 875.876 timesteps/s
97.7% CPU use with 8 MPI tasks x no OpenMP threads

MPI task timing breakdown:
Section |  min time  |  avg time  |  max time  |%varavg| %total
---------------------------------------------------------------
Pair    | 0.024993   | 0.049598   | 0.077077   |   9.4 |  4.34
Bond    | 0.004075   | 0.0062395  | 0.0084398  |   2.2 |  0.55
Neigh   | 0.28565    | 0.28628    | 0.28765    |   0.1 | 25.07
Comm    | 0.11124    | 0.13799    | 0.16086    |   5.3 | 12.09
Output  | 0.00038824 | 0.00041368 | 0.00052572 |   0.0 |  0.04
Modify  | 0.59428    | 0.61937    | 0.63866    |   2.2 | 54.25
Other   |            | 0.04182    |            |       |  3.66

Nlocal:    700 ave 930 max 494 min
Histogram: 2 1 1 0 0 0 1 1 0 2
Nghost:    1020.25 ave 1153 max 871 min
Histogram: 2 0 1 1 0 0 1 0 0 3
Neighs:    3214.62 ave 5222 max 1505 min
Histogram: 2 1 1 0 0 0 2 0 1 1

Total # of neighbors = 25717
Ave neighs/atom = 4.59232
Ave special neighs/atom = 0.571429
Neighbor list builds = 338
Dangerous builds = 0
unfix	1

fix	1 rods	rigid/npt molecule temp 1.4 1.4 1.0 x 0.05 0.05 1.0 dilate all
800 rigid bodies with 4000 atoms
print 	"rigid/npt x"
rigid/npt x
run	1000
Per MPI rank memory allocation (min/avg/max) = 7.094 | 7.28 | 7.472 Mbytes
Step Temp PotEng TotEng Press Enthalpy Lx Ly Lz Pxx Pyy Pzz 
    8000     1.506981    5.5180892    6.7017421  0.026038226    6.8559973    32.132078    32.132078    32.132078   0.12110952  0.019738181 -0.062733024 
    8100    1.4735534    5.5218688    6.6792661  0.077887295    7.1396558    32.060434    32.132078    32.132078  0.079592182   0.11401939  0.040050311 
    8200    1.4616944    5.5039764     6.652059  0.022843001    6.7855087    31.686536    32.132078    32.132078  0.021545414  0.024327186  0.022656402 
    8300     1.430136    5.4872905    6.6105857  0.043391357    6.8604997    31.239041    32.132078    32.132078  0.063425991  0.030956967  0.035791113 
    8400    1.4603655    5.4710513    6.6180902  0.059671441    6.9561692    30.729971    32.132078    32.132078  0.087609654  0.064695648  0.026709022 
    8500    1.4379948    5.4508916    6.5803595  0.018835343    6.6849336    30.113498    32.132078    32.132078  0.060616454 -0.0042309801 0.00012055619 
    8600     1.435653    5.4285582    6.5561867 -0.00082340404    6.5516874    29.637706    32.132078    32.132078 -0.029529494 0.0026955639  0.024363718 
    8700    1.4306652     5.418657    6.5423679  0.041711056    6.7653104    28.990266    32.132078    32.132078  0.044217498  0.020525252  0.060390419 
    8800    1.4138007    5.3894052    6.4998699   0.03652461    6.6916154    28.474096    32.132078    32.132078  0.031176221  0.054751816  0.023645794 
    8900     1.430778    5.3604172    6.4842167  0.048782419    6.7359856    27.992981    32.132078    32.132078  0.067411159 0.0050243393  0.073911759 
    9000    1.4483018    5.3412176    6.4787811  0.084971939    6.9127643    27.701786    32.132078    32.132078  0.065988917  0.098953729  0.089973172 
Loop time of 1.11783 on 8 procs for 1000 steps with 5600 atoms

Performance: 386463.043 tau/day, 894.590 timesteps/s
97.4% CPU use with 8 MPI tasks x no OpenMP threads

MPI task timing breakdown:
Section |  min time  |  avg time  |  max time  |%varavg| %total
---------------------------------------------------------------
Pair    | 0.042039   | 0.076637   | 0.11231    |  10.2 |  6.86
Bond    | 0.0044001  | 0.0060799  | 0.0081914  |   1.9 |  0.54
Neigh   | 0.21864    | 0.21911    | 0.21936    |   0.1 | 19.60
Comm    | 0.12878    | 0.15794    | 0.18603    |   5.5 | 14.13
Output  | 0.00036918 | 0.00039253 | 0.00049792 |   0.0 |  0.04
Modify  | 0.593      | 0.61586    | 0.63927    |   2.7 | 55.09
Other   |            | 0.04182    |            |       |  3.74

Nlocal:    700 ave 880 max 541 min
Histogram: 2 1 1 0 0 0 1 1 1 1
Nghost:    1072.25 ave 1195 max 924 min
Histogram: 1 0 1 0 2 0 1 1 1 1
Neighs:    3990 ave 5453 max 2317 min
Histogram: 2 0 1 1 0 0 0 1 1 2

Total # of neighbors = 31920
Ave neighs/atom = 5.7
Ave special neighs/atom = 0.571429
Neighbor list builds = 169
Dangerous builds = 0
unfix	1

fix	1 rods	rigid/nph molecule iso 0.05 0.05 1.0 dilate all
800 rigid bodies with 4000 atoms
print 	"rigid/nph iso"
rigid/nph iso
run	1000
Per MPI rank memory allocation (min/avg/max) = 7.099 | 7.287 | 7.473 Mbytes
Step Temp PotEng TotEng Press Enthalpy Lx Ly Lz Pxx Pyy Pzz 
    9000    1.4483018    5.3412176    6.4787811  0.043052117    6.6986642    27.701786    32.132078    32.132078  -0.10732885   0.27612875 -0.039643545 
    9100    1.4512725    5.3346572     6.474554  0.057393125    6.7652341    27.624458    32.042383    32.042383  0.070442537  0.068856064  0.032880774 
    9200    1.4606024    5.3042628    6.4514878  0.037535939    6.6350283    27.302574     31.66902     31.66902    0.0479563 -0.00012107203  0.064772587 
    9300    1.4600406    5.2992383     6.446022  0.010256051    6.4945687    27.008591    31.328021    31.328021  0.049267041 0.0092081748 -0.027707063 
    9400    1.4411424    5.2801698    6.4121099  0.053582378    6.6583326    26.743034    31.019994    31.019994  0.091141472  0.030070518  0.039535144 
    9500    1.4321114      5.26841    6.3932568   0.03100745    6.5324426    26.534952    30.778634    30.778634   0.07806654  0.042360821 -0.027405011 
    9600    1.4417884    5.2345269    6.3669744  0.013902377    6.4274391    26.257063    30.456303    30.456303 -0.011888934  -0.03518473  0.088780797 
    9700    1.4418309    5.2092919    6.3417729  0.057701368    6.5879012    26.087583    30.259718    30.259718   0.10407314  0.034368266  0.034662698 
    9800    1.4207094     5.201614    6.3175052  0.034724527    6.4653759    26.072975    30.242774    30.242774  0.042135118  0.034141501  0.027896963 
    9900    1.4333055    5.1871683     6.312953  0.060647872    6.5714362      26.0804    30.251387    30.251387 -0.0033694468  0.065596126   0.11971694 
   10000    1.4074398    5.1929858    6.2984544  0.077794192    6.6285355    26.041531    30.206301    30.206301  0.082311022   0.10176007  0.049311479 
Loop time of 1.13628 on 8 procs for 1000 steps with 5600 atoms

Performance: 380187.792 tau/day, 880.064 timesteps/s
97.1% CPU use with 8 MPI tasks x no OpenMP threads

MPI task timing breakdown:
Section |  min time  |  avg time  |  max time  |%varavg| %total
---------------------------------------------------------------
Pair    | 0.061983   | 0.094352   | 0.12579    |   8.0 |  8.30
Bond    | 0.0051411  | 0.0062639  | 0.008106   |   1.4 |  0.55
Neigh   | 0.21742    | 0.21802    | 0.21837    |   0.1 | 19.19
Comm    | 0.13867    | 0.16456    | 0.18775    |   4.4 | 14.48
Output  | 0.00037406 | 0.00040064 | 0.00053031 |   0.0 |  0.04
Modify  | 0.61528    | 0.6219     | 0.63016    |   0.7 | 54.73
Other   |            | 0.03078    |            |       |  2.71

Nlocal:    700 ave 842 max 542 min
Histogram: 2 0 1 1 0 0 1 0 1 2
Nghost:    1161.38 ave 1257 max 1062 min
Histogram: 2 0 0 1 1 2 0 0 0 2
Neighs:    4760.75 ave 6531 max 2951 min
Histogram: 2 1 0 0 1 0 1 1 0 2

Total # of neighbors = 38086
Ave neighs/atom = 6.80107
Ave special neighs/atom = 0.571429
Neighbor list builds = 163
Dangerous builds = 0
unfix	1

fix	1 rods	rigid/nph molecule x 0.05 0.05 1.0 y 0.05 0.05 1.0         couple xy dilate all
800 rigid bodies with 4000 atoms
print 	"rigid/nph xy couple"
rigid/nph xy couple
run	1000
Per MPI rank memory allocation (min/avg/max) = 7.1 | 7.288 | 7.473 Mbytes
Step Temp PotEng TotEng Press Enthalpy Lx Ly Lz Pxx Pyy Pzz 
   10000    1.4074398    5.1929858    6.2984544  0.056952543    6.5401043    26.041531    30.206301    30.206301   0.26679058 -0.0038840455 -0.092048901 
   10100    1.3881028    5.2022871    6.2925675    0.0396746     6.460797    26.033023    30.196432    30.206301  0.055803502   0.05949486 0.0037254395 
   10200    1.4031574    5.1929658    6.2950708   0.02907369    6.4186556    26.065272    30.233839    30.206301  0.049076091  0.031845127 0.0062998509 
   10300    1.3931747    5.2098175    6.3040816  0.007520655    6.3357173    25.929288    30.076108    30.206301  0.021682187  0.033064924 -0.032185146 
   10400    1.4063902    5.1922836    6.2969278  0.020320598    6.3811047     25.73108      29.8462    30.206301  0.029934866 0.0072366894  0.023790237 
   10500    1.4092713     5.170726    6.2776331  0.034951378    6.4204068    25.551813    29.638264    30.206301  0.012976234  0.087464364  0.004413536 
   10600     1.456254    5.1441127    6.2879222  0.069441881    6.5685797    25.416009     29.48074    30.206301  0.094055912  0.052073965  0.062195766 
   10700    1.4459406    5.1489678    6.2846767  0.062216938    6.5347234    25.344628    29.397944    30.206301  0.097337184  0.040711088  0.048602543 
   10800    1.4210155     5.161613    6.2777445   0.11173646    6.7263121    25.330643    29.381722    30.206301   0.16906417   0.08824706  0.077898144 
   10900    1.4435837    5.1463755    6.2802332  0.058290727    6.5154102    25.393786    29.454964    30.206301  0.033766107  0.042316531  0.098789544 
   11000    1.4199363    5.1297903    6.2450742   0.10229221    6.6590374    25.432515    29.499886    30.206301   0.11193268  0.091509776   0.10343418 
Loop time of 1.14416 on 8 procs for 1000 steps with 5600 atoms

Performance: 377569.287 tau/day, 874.003 timesteps/s
97.5% CPU use with 8 MPI tasks x no OpenMP threads

MPI task timing breakdown:
Section |  min time  |  avg time  |  max time  |%varavg| %total
---------------------------------------------------------------
Pair    | 0.066699   | 0.10317    | 0.13691    |   8.0 |  9.02
Bond    | 0.004993   | 0.0063104  | 0.0079663  |   1.4 |  0.55
Neigh   | 0.21621    | 0.21657    | 0.21715    |   0.1 | 18.93
Comm    | 0.14134    | 0.16982    | 0.19919    |   5.1 | 14.84
Output  | 0.00037432 | 0.00039684 | 0.00050586 |   0.0 |  0.03
Modify  | 0.61702    | 0.62435    | 0.63087    |   0.6 | 54.57
Other   |            | 0.02355    |            |       |  2.06

Nlocal:    700 ave 853 max 529 min
Histogram: 1 0 1 2 1 0 0 0 1 2
Nghost:    1172.12 ave 1252 max 1104 min
Histogram: 1 1 2 0 1 0 0 1 1 1
Neighs:    5142 ave 7137 max 2989 min
Histogram: 1 1 1 0 0 2 0 0 2 1

Total # of neighbors = 41136
Ave neighs/atom = 7.34571
Ave special neighs/atom = 0.571429
Neighbor list builds = 156
Dangerous builds = 0

Total wall time: 0:00:09
