LAMMPS (30 Jun 2020)
  using 1 OpenMP thread(s) per MPI task
variable number	equal 4
variable ofreq	equal 1000
variable efreq	equal 1000
variable T      equal 0.1

units lj

dimension 3

newton off

boundary  p p p

atom_style hybrid bond ellipsoid
WARNING: Atom_style hybrid defines both pertype and peratom masses - both must be set, only peratom masses will be used (src/atom_vec_hybrid.cpp:156)
atom_modify sort 0 1.0

# Pair interactions require lists of neighbours to be calculated
neighbor 1.0 bin
neigh_modify every 1 delay 0 check yes
special_bonds lj 0 1 1 coul 1 1 1

read_data data.duplex4
  orthogonal box = (-20 -20 -20) to (20 20 20)
  2 by 2 by 2 MPI processor grid
  reading atoms ...
  16 atoms
  reading velocities ...
  16 velocities
  16 ellipsoids
  scanning bonds ...
  2 = max bonds/atom
  reading bonds ...
  13 bonds
  2 = max # of 1-2 neighbors
  2 = max # of special neighbors
  special bonds CPU = 0.001 seconds
  read_data CPU = 0.066 seconds

set atom * mass 3.1575
  16 settings made for mass

group all type 1 4
16 atoms in group all

# oxRNA2 bond interactions - FENE backbone
bond_style oxrna2/fene
bond_coeff * 2.0 0.25 0.761070781051

# oxRNA2 pair interactions
pair_style hybrid/overlay oxrna2/excv oxrna2/stk oxrna2/hbond oxrna2/xstk oxrna2/coaxstk oxrna2/dh

pair_coeff * * oxrna2/excv    2.0 0.7 0.675 2.0 0.515 0.5 2.0 0.33 0.32
pair_coeff * * oxrna2/stk     seqdep ${T} 1.40206 2.77 6.0 0.43 0.93 0.35 0.78 0.9 0 0.95 0.9 0 0.95 1.3 0 0.8 1.3 0 0.8 2.0 0.65 2.0 0.65
pair_coeff * * oxrna2/stk     seqdep 0.1 1.40206 2.77 6.0 0.43 0.93 0.35 0.78 0.9 0 0.95 0.9 0 0.95 1.3 0 0.8 1.3 0 0.8 2.0 0.65 2.0 0.65
pair_coeff * * oxrna2/hbond   seqdep 0.0 8.0 0.4 0.75 0.34 0.7 1.5 0 0.7 1.5 0 0.7 1.5 0 0.7 0.46 3.141592653589793 0.7 4.0 1.5707963267948966 0.45 4.0 1.5707963267948966 0.45
pair_coeff 1 4 oxrna2/hbond   seqdep 0.870439 8.0 0.4 0.75 0.34 0.7 1.5 0 0.7 1.5 0 0.7 1.5 0 0.7 0.46 3.141592653589793 0.7 4.0 1.5707963267948966 0.45 4.0 1.5707963267948966 0.45
pair_coeff 2 3 oxrna2/hbond   seqdep 0.870439 8.0 0.4 0.75 0.34 0.7 1.5 0 0.7 1.5 0 0.7 1.5 0 0.7 0.46 3.141592653589793 0.7 4.0 1.5707963267948966 0.45 4.0 1.5707963267948966 0.45
pair_coeff 3 4 oxrna2/hbond   seqdep 0.870439 8.0 0.4 0.75 0.34 0.7 1.5 0 0.7 1.5 0 0.7 1.5 0 0.7 0.46 3.141592653589793 0.7 4.0 1.5707963267948966 0.45 4.0 1.5707963267948966 0.45
pair_coeff * * oxrna2/xstk    59.9626 0.5 0.6 0.42 0.58 2.25 0.505 0.58 1.7 1.266 0.68 1.7 1.266 0.68 1.7 0.309 0.68 1.7 0.309 0.68
pair_coeff * * oxrna2/coaxstk 80 0.5 0.6 0.42 0.58 2.0 2.592 0.65 1.3 0.151 0.8 0.9 0.685 0.95 0.9 0.685 0.95 2.0 -0.65 2.0 -0.65
pair_coeff * * oxrna2/dh      ${T} 0.5 1.02455
pair_coeff * * oxrna2/dh      0.1 0.5 1.02455

# NVE ensemble
#fix 1 all   nve/dotc/langevin 0.1 0.1 0.03 457145 angmom 10
#fix 1 all   nve/dot
fix 1 all nve/asphere

timestep 1e-5

#comm_style tiled
#fix 3 all balance 10000 1.1 rcb

#compute mol all chunk/atom molecule
#compute mychunk all vcm/chunk mol
#fix 4 all ave/time 10000 1 10000 c_mychunk[1] c_mychunk[2] c_mychunk[3] file vcm.txt mode vector

#dump pos all xyz ${ofreq} traj.${number}.xyz

#compute quat all property/atom quatw quati quatj quatk
#dump quat all custom ${ofreq} quat.${number}.txt id c_quat[1] c_quat[2] c_quat[3] c_quat[4]
#dump_modify quat sort id
#dump_modify quat format line "%d  %13.6le  %13.6le  %13.6le  %13.6le"

compute erot all erotate/asphere
compute ekin all ke
compute epot all pe
variable erot equal c_erot
variable ekin equal c_ekin
variable epot equal c_epot
variable etot equal c_erot+c_ekin+c_epot

#dump out all custom ${ofreq} out.${number}.txt id x y z vx vy vz fx fy fz tqx tqy tqz
#dump_modify out sort id
#dump_modify out format line "%d  %13.9f %13.9f %13.9f  %13.9f %13.9f %13.9f  %13.9f %13.9f %13.9f  %13.9f %13.9f %13.9f"
thermo_style custom step temp press v_ekin v_erot v_epot v_etot
thermo 100
run 1000
Neighbor list info ...
  update every 1 steps, delay 0 steps, check yes
  max neighbors/atom: 2000, page size: 100000
  master list distance cutoff = 3.3014979
  ghost atom cutoff = 3.3014979
  binsize = 1.650749, bins = 25 25 25
  6 neighbor lists, perpetual/occasional/extra = 6 0 0
  (1) pair oxrna2/excv, perpetual
      attributes: half, newton off
      pair build: half/bin/newtoff
      stencil: half/bin/3d/newtoff
      bin: standard
  (2) pair oxrna2/stk, perpetual, copy from (1)
      attributes: half, newton off
      pair build: copy
      stencil: none
      bin: none
  (3) pair oxrna2/hbond, perpetual, copy from (1)
      attributes: half, newton off
      pair build: copy
      stencil: none
      bin: none
  (4) pair oxrna2/xstk, perpetual, copy from (1)
      attributes: half, newton off
      pair build: copy
      stencil: none
      bin: none
  (5) pair oxrna2/coaxstk, perpetual, copy from (1)
      attributes: half, newton off
      pair build: copy
      stencil: none
      bin: none
  (6) pair oxrna2/dh, perpetual, copy from (1)
      attributes: half, newton off
      pair build: copy
      stencil: none
      bin: none
Per MPI rank memory allocation (min/avg/max) = 7.74 | 7.797 | 7.854 Mbytes
Step Temp Press v_ekin v_erot v_epot v_etot 
       0            0 -2.0169485e-05            0            0   -13.282538   -13.282538 
     100 1.9947482e-06 -2.0165574e-05 4.4881835e-05 8.2719189e-05   -13.282665   -13.282538 
     200 7.9788221e-06 -2.0153845e-05 0.0001795235 0.00033090714   -13.283048   -13.282538 
     300 1.795171e-05 -2.0134296e-05 0.00040391347 0.00074448862   -13.283686   -13.282538 
     400 3.1912558e-05 -2.0106927e-05 0.00071803256 0.0013233382   -13.284579   -13.282538 
     500 4.9860177e-05 -2.0071739e-05  0.001121854 0.0020672806   -13.285727   -13.282538 
     600 7.1793036e-05 -2.0028731e-05 0.0016153433 0.0029760906   -13.287129   -13.282538 
     700 9.7709274e-05 -1.9977904e-05 0.0021984587 0.0040494932   -13.288786   -13.282538 
     800 0.0001276067 -1.9919255e-05 0.0028711507 0.0052871642   -13.290696   -13.282538 
     900 0.00016148279 -1.9852786e-05 0.0036333627 0.0066887304    -13.29286   -13.282538 
    1000 0.0001993347 -1.9778496e-05 0.0044850307 0.0082537694   -13.295276   -13.282538 
Loop time of 0.268342 on 8 procs for 1000 steps with 16 atoms

Performance: 3219.769 tau/day, 3726.584 timesteps/s
16.7% CPU use with 8 MPI tasks x 1 OpenMP threads

MPI task timing breakdown:
Section |  min time  |  avg time  |  max time  |%varavg| %total
---------------------------------------------------------------
Pair    | 0.0011832  | 0.0090641  | 0.018003   |   7.2 |  3.38
Bond    | 0.00013082 | 0.00028536 | 0.00044777 |   0.0 |  0.11
Neigh   | 0          | 0          | 0          |   0.0 |  0.00
Comm    | 0.082551   | 0.1259     | 0.17409    |   7.2 | 46.92
Output  | 0.0047413  | 0.0052908  | 0.0058335  |   0.4 |  1.97
Modify  | 0.00017897 | 0.00041904 | 0.0006556  |   0.0 |  0.16
Other   |            | 0.1274     |            |       | 47.47

Nlocal:    2.0 ave 4.0 max 0.0 min
Histogram: 3 0 1 0 0 0 0 1 0 3
Nghost:    14.0 ave 16.0 max 12.0 min
Histogram: 3 0 1 0 0 0 0 1 0 3
Neighs:    27.375 ave 54.0 max 0.0 min
Histogram: 3 0 1 0 0 0 0 1 0 3

Total # of neighbors = 219
Ave neighs/atom = 13.6875
Ave special neighs/atom = 1.625
Neighbor list builds = 0
Dangerous builds = 0

#write_restart config.${number}.*
Total wall time: 0:00:00
