LAMMPS (28 Feb 2019)
  using 1 OpenMP thread(s) per MPI task
# 2d micelle simulation

dimension	2

neighbor	0.3 bin
neigh_modify	delay 5

atom_style	bond

# Soft potential push-off

read_data	data.micelle
  orthogonal box = (0 0 -0.1) to (35.8569 35.8569 0.1)
  4 by 2 by 1 MPI processor grid
  reading atoms ...
  1200 atoms
  scanning bonds ...
  1 = max bonds/atom
  reading bonds ...
  300 bonds
  2 = max # of 1-2 neighbors
  1 = max # of 1-3 neighbors
  1 = max # of 1-4 neighbors
  2 = max # of special neighbors
  special bonds CPU = 0.00172806 secs
  read_data CPU = 0.00648832 secs
special_bonds	fene
  2 = max # of 1-2 neighbors
  2 = max # of special neighbors
  special bonds CPU = 0.000291824 secs

pair_style	soft 1.12246
pair_coeff	* * 0.0 1.12246

bond_style 	harmonic
bond_coeff	1 50.0 0.75

velocity	all create 0.45 2349852

variable	prefactor equal ramp(1.0,20.0)

fix		1 all nve
fix		2 all temp/rescale 100 0.45 0.45 0.02 1.0
fix		3 all adapt 1 pair soft a * * v_prefactor
fix		4 all enforce2d

thermo		50
run		1000
Neighbor list info ...
  update every 1 steps, delay 5 steps, check yes
  max neighbors/atom: 2000, page size: 100000
  master list distance cutoff = 1.42246
  ghost atom cutoff = 1.42246
  binsize = 0.71123, bins = 51 51 1
  1 neighbor lists, perpetual/occasional/extra = 1 0 0
  (1) pair soft, perpetual
      attributes: half, newton on
      pair build: half/bin/newton
      stencil: half/bin/2d/newton
      bin: standard
Per MPI rank memory allocation (min/avg/max) = 3.75 | 3.843 | 4.122 Mbytes
Step Temp E_pair E_mol TotEng Press 
       0         0.45   0.40003481 2.2200223e-06   0.84966203   0.78952518 
      50   0.47411013   0.67721272  0.057404514    1.2083323    1.3375852 
     100         0.45   0.73046745  0.054836584     1.234929    2.3196516 
     150   0.67521742   0.72402001  0.043490075    1.4421648    2.8744416 
     200         0.45   0.78481891  0.076931503    1.3113754    3.0412388 
     250   0.66479018   0.69790602  0.081075564    1.4432178    3.6917024 
     300         0.45   0.76820218  0.066727591    1.2845548    3.7861054 
     350   0.67619136     0.625715  0.072722727    1.3740656    4.2861621 
     400         0.45   0.68527759  0.090724527    1.2256271    4.4725214 
     450   0.56702844   0.64402767  0.080555563    1.2911391    4.7402211 
     500         0.45   0.64883009  0.078376672    1.1768318    4.7919294 
     550     0.564664   0.58260368  0.080779475    1.2275766    4.9855705 
     600         0.45   0.58193041  0.088386617     1.119942     5.131481 
     650   0.52110993    0.5415273  0.097683746    1.1598867    5.2500294 
     700         0.45   0.50856787  0.088471208    1.0466641    5.2550165 
     750   0.51510855   0.47441291  0.089429375    1.0785216     5.375763 
     800         0.45   0.49926696  0.085958476    1.0348504    5.4665914 
     850   0.50688494   0.46614429  0.088962292    1.0615691     5.556932 
     900         0.45   0.47785593   0.10150857    1.0289895    5.7765975 
     950   0.49590559   0.46050477  0.096404887     1.052402    5.8649245 
    1000         0.45   0.47691182   0.08808163    1.0146185    6.0177568 
Loop time of 0.0728925 on 8 procs for 1000 steps with 1200 atoms

Performance: 5926539.128 tau/day, 13718.841 timesteps/s
97.2% CPU use with 8 MPI tasks x 1 OpenMP threads

MPI task timing breakdown:
Section |  min time  |  avg time  |  max time  |%varavg| %total
---------------------------------------------------------------
Pair    | 0.023264   | 0.025214   | 0.027135   |   0.7 | 34.59
Bond    | 0.0014446  | 0.0018156  | 0.0021029  |   0.4 |  2.49
Neigh   | 0.0061913  | 0.0062983  | 0.006371   |   0.1 |  8.64
Comm    | 0.018635   | 0.022316   | 0.025946   |   1.5 | 30.61
Output  | 0.00084162 | 0.00097722 | 0.001446   |   0.0 |  1.34
Modify  | 0.0082831  | 0.0090949  | 0.009408   |   0.4 | 12.48
Other   |            | 0.007176   |            |       |  9.85

Nlocal:    150 ave 154 max 144 min
Histogram: 1 0 0 0 1 0 2 2 1 1
Nghost:    79 ave 84 max 75 min
Histogram: 1 1 1 0 3 0 0 0 1 1
Neighs:    392 ave 417 max 363 min
Histogram: 1 0 1 0 1 1 2 1 0 1

Total # of neighbors = 3136
Ave neighs/atom = 2.61333
Ave special neighs/atom = 0.5
Neighbor list builds = 92
Dangerous builds = 0

unfix		3

# Main run

pair_style	lj/cut 2.5

# solvent/head - full-size and long-range

pair_coeff	1 1 1.0 1.0 2.5
pair_coeff	2 2 1.0 1.0 2.5
pair_coeff	1 2 1.0 1.0 2.5

# tail/tail - size-averaged and long-range

pair_coeff	3 3 1.0 0.75 2.5
pair_coeff	4 4 1.0 0.50 2.5
pair_coeff	3 4 1.0 0.67 2.5

# solvent/tail - full-size and repulsive

pair_coeff	1 3 1.0 1.0 1.12246
pair_coeff	1 4 1.0 1.0 1.12246

# head/tail - size-averaged and repulsive

pair_coeff	2 3 1.0 0.88 1.12246
pair_coeff	2 4 1.0 0.75 1.12246

thermo		1000

#dump		1 all atom 2000 dump.micelle

#dump		2 all image 2000 image.*.jpg type type zoom 1.6
#dump_modify	2 pad 5 adiam 1 0.5 adiam 2 1.5 adiam 3 1.0 adiam 4 0.75

#dump		3 all movie 2000 movie.mpg type type zoom 1.6
#dump_modify	3 pad 5 adiam 1 0.5 adiam 2 1.5 adiam 3 1.0 adiam 4 0.75

reset_timestep	0
run		60000
Neighbor list info ...
  update every 1 steps, delay 5 steps, check yes
  max neighbors/atom: 2000, page size: 100000
  master list distance cutoff = 2.8
  ghost atom cutoff = 2.8
  binsize = 1.4, bins = 26 26 1
  1 neighbor lists, perpetual/occasional/extra = 1 0 0
  (1) pair lj/cut, perpetual
      attributes: half, newton on
      pair build: half/bin/newton
      stencil: half/bin/2d/newton
      bin: standard
Per MPI rank memory allocation (min/avg/max) = 3.997 | 4.028 | 4.121 Mbytes
Step Temp E_pair E_mol TotEng Press 
       0         0.45   -1.7056163   0.08808163   -1.1679097    3.9431686 
    1000         0.45   -1.9727643  0.058608358   -1.4645309     1.998253 
    2000   0.46174147   -1.9864219  0.055608144   -1.4694571      1.76575 
    3000   0.45289226    -2.003498  0.065520917   -1.4854622    1.5934396 
    4000   0.45628478   -2.0075459  0.060689116   -1.4909522    1.4172761 
    5000   0.46181542     -2.05028  0.058559388     -1.53029    1.1396779 
    6000   0.45693972   -2.0547705  0.075608683   -1.5226029    1.1127407 
    7000   0.44941642    -2.057486  0.064587822   -1.5438563    1.1965798 
    8000   0.44729233   -2.0455471   0.05820509   -1.5404225    1.1033089 
    9000   0.45801428   -2.0696904  0.062586402   -1.5494714   0.99545535 
   10000   0.45567622   -2.0662673  0.069483447   -1.5414874     1.069191 
   11000   0.44161902   -2.0595153  0.066964124   -1.5513002    1.1088457 
   12000   0.45698542   -2.0772384  0.062645799    -1.557988    1.0202489 
   13000   0.44261042   -2.0531623  0.060182548   -1.5507382    1.1281217 
   14000   0.45717622   -2.0799693  0.061035283   -1.5621388   0.96882528 
   15000   0.44702074    -2.068818  0.071596625   -1.5505732   0.96976492 
   16000   0.43691967   -2.0766578  0.053266969   -1.5868352   0.87451037 
   17000   0.44066964   -2.0863644  0.064840846   -1.5812211   0.98398806 
   18000   0.45477655   -2.1132365  0.063574028   -1.5952649   0.74083643 
   19000    0.4523065   -2.1080779  0.058807256   -1.5973411   0.76048962 
   20000   0.46417069   -2.0899095  0.049529178   -1.5765965   0.96432907 
   21000   0.45897884   -2.0918367   0.06785089   -1.5653894   0.82850783 
   22000   0.43153878   -2.0684595  0.076740958   -1.5605393   0.93178997 
   23000   0.45024927    -2.092907   0.06489219   -1.5781407   0.97877544 
   24000   0.44034423   -2.0854641  0.060055987   -1.5854308   0.89344116 
   25000   0.44987146   -2.0960921  0.072836147   -1.5737594   0.82000327 
   26000    0.4602393   -2.0905336  0.065119085   -1.5655587   0.88317825 
   27000    0.4568587   -2.0947235  0.062929406   -1.5753161   0.72852287 
   28000   0.46286138    -2.087595  0.056326168   -1.5687932   0.74077343 
   29000   0.43757514   -2.0881221  0.052576641   -1.5983349   0.80011264 
   30000   0.45320138   -2.1041019   0.06175771   -1.5895205   0.74550413 
   31000   0.43877622   -2.0836526  0.059485979   -1.5857561     0.966248 
   32000         0.45    -2.101248  0.065717448   -1.5859055   0.64282045 
   33000   0.44580375   -2.1115737  0.059777155   -1.6063643   0.51343678 
   34000   0.44830444   -2.1048573  0.057429037   -1.5994974   0.93992448 
   35000   0.44134982   -2.0938623   0.06199615   -1.5908841   0.83433459 
   36000   0.45893642   -2.0905618  0.056400766    -1.575607   0.78091665 
   37000   0.45289304   -2.1071066  0.059756405   -1.5948345   0.60993181 
   38000   0.46000825   -2.1118448  0.058061195   -1.5941587   0.79993659 
   39000   0.45442573   -2.1157413  0.058225063   -1.6034692   0.82183718 
   40000   0.44043476   -2.0896032  0.052784825   -1.5967507   0.83199843 
   41000   0.44372863   -2.0850422  0.054860613   -1.5868227    1.0025225 
   42000   0.45576472   -2.1143653  0.065170563   -1.5938098   0.55445528 
   43000   0.44084063    -2.088365  0.061568932   -1.5863228   0.75513543 
   44000   0.44163803   -2.1130254  0.069537552   -1.6022178   0.63718812 
   45000         0.45   -2.1363443  0.059801829   -1.6269174   0.57686819 
   46000   0.43932955    -2.112713  0.064177319   -1.6095723   0.69215131 
   47000   0.45054783   -2.1071088  0.054410259   -1.6025262   0.77382256 
   48000   0.44869185   -2.1018348  0.052875695   -1.6006412   0.68567927 
   49000         0.45   -2.1062004  0.065671092   -1.5909043   0.69798161 
   50000   0.44136588   -2.0963732  0.065833049   -1.5895421   0.85646839 
   51000   0.46670009   -2.1252469    0.0629072   -1.5960286   0.73006947 
   52000   0.46118308   -2.1140689  0.060682448   -1.5925877   0.71175133 
   53000   0.44868557   -2.1074598  0.065325102   -1.5938231   0.75391511 
   54000   0.44319826    -2.110089  0.057311995   -1.6099481   0.70208003 
   55000   0.46118776   -2.1153682  0.064672619   -1.5898921   0.78658624 
   56000   0.45128485   -2.1178086  0.056566016   -1.6103338   0.58894672 
   57000   0.44078089   -2.1006729  0.054067595   -1.6061917   0.86308411 
   58000   0.46063479   -2.1410221    0.0609294   -1.6198417   0.43835789 
   59000    0.4325952   -2.1013722  0.058166214   -1.6109713   0.79482633 
   60000   0.45337402   -2.1229433  0.055493506   -1.6144536   0.70282096 
Loop time of 3.38274 on 8 procs for 60000 steps with 1200 atoms

Performance: 7662427.318 tau/day, 17737.100 timesteps/s
98.8% CPU use with 8 MPI tasks x 1 OpenMP threads

MPI task timing breakdown:
Section |  min time  |  avg time  |  max time  |%varavg| %total
---------------------------------------------------------------
Pair    | 1.354      | 1.4242     | 1.4786     |   3.4 | 42.10
Bond    | 0.055314   | 0.069716   | 0.084652   |   4.0 |  2.06
Neigh   | 0.36712    | 0.37522    | 0.38437    |   1.0 | 11.09
Comm    | 0.96813    | 1.0453     | 1.1342     |   5.5 | 30.90
Output  | 0.002115   | 0.0021768  | 0.0025303  |   0.3 |  0.06
Modify  | 0.16933    | 0.17655    | 0.18349    |   1.2 |  5.22
Other   |            | 0.2896     |            |       |  8.56

Nlocal:    150 ave 160 max 143 min
Histogram: 1 2 1 1 0 1 0 1 0 1
Nghost:    168.75 ave 185 max 143 min
Histogram: 1 0 1 0 0 2 0 1 2 1
Neighs:    1202 ave 1313 max 1130 min
Histogram: 1 2 1 1 1 0 0 1 0 1

Total # of neighbors = 9616
Ave neighs/atom = 8.01333
Ave special neighs/atom = 0.5
Neighbor list builds = 4877
Dangerous builds = 0
Total wall time: 0:00:03
