LAMMPS (28 Feb 2019)
  using 1 OpenMP thread(s) per MPI task
# 2d micelle simulation

dimension	2

neighbor	0.3 bin
neigh_modify	delay 5

atom_style	bond

# Soft potential push-off

read_data	data.micelle
  orthogonal box = (0 0 -0.1) to (35.8569 35.8569 0.1)
  2 by 2 by 1 MPI processor grid
  reading atoms ...
  1200 atoms
  scanning bonds ...
  1 = max bonds/atom
  reading bonds ...
  300 bonds
  2 = max # of 1-2 neighbors
  1 = max # of 1-3 neighbors
  1 = max # of 1-4 neighbors
  2 = max # of special neighbors
  special bonds CPU = 0.000356674 secs
  read_data CPU = 0.00283122 secs
special_bonds	fene
  2 = max # of 1-2 neighbors
  2 = max # of special neighbors
  special bonds CPU = 0.000141382 secs

pair_style	soft 1.12246
pair_coeff	* * 0.0 1.12246

bond_style 	harmonic
bond_coeff	1 50.0 0.75

velocity	all create 0.45 2349852

variable	prefactor equal ramp(1.0,20.0)

fix		1 all nve
fix		2 all temp/rescale 100 0.45 0.45 0.02 1.0
fix		3 all adapt 1 pair soft a * * v_prefactor
fix		4 all enforce2d

thermo		50
run		1000
Neighbor list info ...
  update every 1 steps, delay 5 steps, check yes
  max neighbors/atom: 2000, page size: 100000
  master list distance cutoff = 1.42246
  ghost atom cutoff = 1.42246
  binsize = 0.71123, bins = 51 51 1
  1 neighbor lists, perpetual/occasional/extra = 1 0 0
  (1) pair soft, perpetual
      attributes: half, newton on
      pair build: half/bin/newton
      stencil: half/bin/2d/newton
      bin: standard
Per MPI rank memory allocation (min/avg/max) = 3.758 | 3.85 | 4.126 Mbytes
Step Temp E_pair E_mol TotEng Press 
       0         0.45   0.40003481 2.2200223e-06   0.84966203   0.78952518 
      50   0.47411013   0.67721272  0.057404514    1.2083323    1.3375852 
     100         0.45   0.73046745  0.054836584     1.234929    2.3196516 
     150   0.67521742   0.72402001  0.043490075    1.4421648    2.8744416 
     200         0.45   0.78481891  0.076931503    1.3113754    3.0412388 
     250   0.66479018   0.69790602  0.081075564    1.4432178    3.6917024 
     300         0.45   0.76820218  0.066727591    1.2845548    3.7861054 
     350   0.67619136     0.625715  0.072722727    1.3740656    4.2861621 
     400         0.45   0.68527759  0.090724527    1.2256271    4.4725214 
     450   0.56702844   0.64402767  0.080555563    1.2911391    4.7402211 
     500         0.45   0.64883009  0.078376672    1.1768318    4.7919294 
     550     0.564664   0.58260368  0.080779475    1.2275766    4.9855705 
     600         0.45   0.58193041  0.088386617     1.119942     5.131481 
     650   0.52110993    0.5415273  0.097683746    1.1598867    5.2500294 
     700         0.45   0.50856787  0.088471208    1.0466641    5.2550165 
     750   0.51510855   0.47441291  0.089429375    1.0785216     5.375763 
     800         0.45   0.49926696  0.085958476    1.0348504    5.4665914 
     850   0.50688494   0.46614429  0.088962292    1.0615691     5.556932 
     900         0.45   0.47785593   0.10150857    1.0289895    5.7765975 
     950   0.49590559   0.46050477  0.096404887     1.052402    5.8649245 
    1000         0.45   0.47691182   0.08808163    1.0146185    6.0177568 
Loop time of 0.0869901 on 4 procs for 1000 steps with 1200 atoms

Performance: 4966084.721 tau/day, 11495.566 timesteps/s
98.1% CPU use with 4 MPI tasks x 1 OpenMP threads

MPI task timing breakdown:
Section |  min time  |  avg time  |  max time  |%varavg| %total
---------------------------------------------------------------
Pair    | 0.036091   | 0.039068   | 0.043133   |   1.3 | 44.91
Bond    | 0.0023391  | 0.002465   | 0.0025988  |   0.2 |  2.83
Neigh   | 0.0086856  | 0.0087957  | 0.0089016  |   0.1 | 10.11
Comm    | 0.016291   | 0.020813   | 0.02409    |   2.1 | 23.93
Output  | 0.00061846 | 0.00066566 | 0.00078511 |   0.0 |  0.77
Modify  | 0.0083981  | 0.0093814  | 0.010501   |   1.0 | 10.78
Other   |            | 0.005801   |            |       |  6.67

Nlocal:    300 ave 305 max 292 min
Histogram: 1 0 0 0 0 0 1 0 1 1
Nghost:    100.25 ave 108 max 93 min
Histogram: 1 0 1 0 0 0 1 0 0 1
Neighs:    784 ave 815 max 739 min
Histogram: 1 0 0 0 0 0 1 1 0 1

Total # of neighbors = 3136
Ave neighs/atom = 2.61333
Ave special neighs/atom = 0.5
Neighbor list builds = 92
Dangerous builds = 0

unfix		3

# Main run

pair_style	lj/cut 2.5

# solvent/head - full-size and long-range

pair_coeff	1 1 1.0 1.0 2.5
pair_coeff	2 2 1.0 1.0 2.5
pair_coeff	1 2 1.0 1.0 2.5

# tail/tail - size-averaged and long-range

pair_coeff	3 3 1.0 0.75 2.5
pair_coeff	4 4 1.0 0.50 2.5
pair_coeff	3 4 1.0 0.67 2.5

# solvent/tail - full-size and repulsive

pair_coeff	1 3 1.0 1.0 1.12246
pair_coeff	1 4 1.0 1.0 1.12246

# head/tail - size-averaged and repulsive

pair_coeff	2 3 1.0 0.88 1.12246
pair_coeff	2 4 1.0 0.75 1.12246

thermo		1000

#dump		1 all atom 2000 dump.micelle

#dump		2 all image 2000 image.*.jpg type type zoom 1.6
#dump_modify	2 pad 5 adiam 1 0.5 adiam 2 1.5 adiam 3 1.0 adiam 4 0.75

#dump		3 all movie 2000 movie.mpg type type zoom 1.6
#dump_modify	3 pad 5 adiam 1 0.5 adiam 2 1.5 adiam 3 1.0 adiam 4 0.75

reset_timestep	0
group solvent   molecule 0
750 atoms in group solvent
group solute    subtract all solvent
450 atoms in group solute
unfix 1
unfix 2
unfix 4
fix		1 solvent nve
fix		2 solvent temp/rescale 100 0.45 0.45 0.02 1.0
fix		5 solute rigid molecule langevin 0.45 0.45 0.5 112211
150 rigid bodies with 450 atoms
fix		4 all enforce2d
run		20000
Neighbor list info ...
  update every 1 steps, delay 5 steps, check yes
  max neighbors/atom: 2000, page size: 100000
  master list distance cutoff = 2.8
  ghost atom cutoff = 2.8
  binsize = 1.4, bins = 26 26 1
  1 neighbor lists, perpetual/occasional/extra = 1 0 0
  (1) pair lj/cut, perpetual
      attributes: half, newton on
      pair build: half/bin/newton
      stencil: half/bin/2d/newton
      bin: standard
Per MPI rank memory allocation (min/avg/max) = 5.251 | 5.282 | 5.374 Mbytes
Step Temp E_pair E_mol TotEng Press 
       0   0.44603578   -1.7056163   0.08808163   -1.2555023    3.4039736 
    1000   0.46008163   -1.9040835   0.08808163   -1.4425689   0.93225863 
    2000   0.44950179   -1.9372471   0.08808163   -1.4843199    3.8437912 
    3000   0.45378805   -1.9375371   0.08808163   -1.4811309    3.5702488 
    4000   0.45527373   -1.9586409   0.08808163   -1.5010288   -1.4138082 
    5000   0.46113225   -1.9658174   0.08808163   -1.5034501    1.5508108 
    6000   0.45787749   -1.9817464   0.08808163   -1.5220208    1.6006265 
    7000   0.45113234   -1.9888323   0.08808163   -1.5345816    4.1096858 
    8000   0.44078173   -1.9726929   0.08808163   -1.5268435   -4.7801015 
    9000   0.46309503   -2.0037614   0.08808163    -1.539801    5.3287972 
   10000   0.44783713   -2.0001035   0.08808163   -1.5485274    1.8920775 
   11000   0.44637356   -1.9853494   0.08808163   -1.5349612  -0.58222271 
   12000   0.43181973   -2.0013526   0.08808163   -1.5627773   -1.3106486 
   13000   0.44419042   -2.0016244   0.08808163   -1.5530082    3.0251258 
   14000   0.45845282   -2.0158136   0.08808163   -1.5556211  -0.45021219 
   15000   0.44996541   -2.0336987   0.08808163   -1.5803951   -4.9731115 
   16000    0.4562349   -2.0354484   0.08808163   -1.5770561  -0.52599756 
   17000   0.43717538   -2.0289159   0.08808163   -1.5859936   -4.9508897 
   18000   0.43890156   -2.0185673   0.08808163   -1.5742439    1.0972244 
   19000   0.44505953   -2.0378359   0.08808163   -1.5885143   0.54722859 
   20000   0.46131544   -2.0252263   0.08808163   -1.5627103  -0.21989439 
Loop time of 3.63715 on 4 procs for 20000 steps with 1200 atoms

Performance: 2375487.398 tau/day, 5498.813 timesteps/s
98.1% CPU use with 4 MPI tasks x 1 OpenMP threads

MPI task timing breakdown:
Section |  min time  |  avg time  |  max time  |%varavg| %total
---------------------------------------------------------------
Pair    | 0.83691    | 0.87283    | 0.92891    |   3.7 | 24.00
Bond    | 0.042637   | 0.044997   | 0.047949   |   0.9 |  1.24
Neigh   | 0.21027    | 0.21202    | 0.21342    |   0.2 |  5.83
Comm    | 0.34873    | 0.42547    | 0.48434    |   7.5 | 11.70
Output  | 0.0005219  | 0.00056213 | 0.00066781 |   0.0 |  0.02
Modify  | 1.8809     | 1.9283     | 1.9621     |   2.3 | 53.02
Other   |            | 0.1529     |            |       |  4.21

Nlocal:    300 ave 308 max 291 min
Histogram: 1 0 0 0 0 2 0 0 0 1
Nghost:    220.25 ave 233 max 206 min
Histogram: 1 0 0 0 1 0 1 0 0 1
Neighs:    2213 ave 2284 max 2124 min
Histogram: 1 0 0 1 0 0 0 0 1 1

Total # of neighbors = 8852
Ave neighs/atom = 7.37667
Ave special neighs/atom = 0.5
Neighbor list builds = 1569
Dangerous builds = 0
unfix 5
unfix 4
fix		5 solute rigid/small molecule langevin 0.45 0.45 0.5 112211
  create bodies CPU = 8.63075e-05 secs
150 rigid bodies with 450 atoms
  0.916597 = max distance from body owner to body atom
fix		4 all enforce2d
run		20000
Per MPI rank memory allocation (min/avg/max) = 8.569 | 8.6 | 8.692 Mbytes
Step Temp E_pair E_mol TotEng Press 
   20000   0.46131544   -2.0252263   0.08808163   -1.5627103    1.9685166 
   21000   0.45817718   -2.0517456   0.08808163   -1.5917768    1.3419149 
   22000   0.46020562   -2.0608121   0.08808163   -1.5991969    1.8313261 
   23000   0.45450752    -2.046178   0.08808163   -1.5891878  0.025333876 
   24000   0.44327382   -2.0518601   0.08808163   -1.6039879    1.6386325 
   25000   0.45467609   -2.0281794   0.08808163   -1.5710523  -0.22689934 
   26000   0.44672151   -2.0422003   0.08808163   -1.5915297   0.94836439 
   27000   0.46246761   -2.0528643   0.08808163   -1.5894131    3.0915834 
   28000   0.46423174   -2.0616352   0.08808163   -1.5967521    1.5773311 
   29000   0.45604735   -2.0546703   0.08808163   -1.5964302   0.37093627 
   30000   0.45141306   -2.0387966   0.08808163   -1.5843181      -3.4117 
   31000   0.45651272   -2.0561065   0.08808163   -1.5974887    2.9351791 
   32000   0.46616431   -2.0568228   0.08808163   -1.5903712    9.8531733 
   33000   0.45519488   -2.0652191   0.08808163    -1.607671    1.2303817 
   34000   0.46178474   -2.0628878   0.08808163   -1.5999909    0.6887006 
   35000   0.43953795   -2.0452849   0.08808163    -1.600445    2.0774393 
   36000   0.44929318   -2.0463124   0.08808163   -1.5935545   -0.8035242 
   37000    0.4554594   -2.0713837   0.08808163   -1.6136208  -0.87760797 
   38000   0.45086745   -2.0589318   0.08808163   -1.6048961    1.5564281 
   39000   0.44640178   -2.0608888   0.08808163   -1.6104777    4.7728105 
   40000   0.45516224   -2.0546997   0.08808163   -1.5971781   -3.0095324 
Loop time of 2.68398 on 4 procs for 20000 steps with 1200 atoms

Performance: 3219103.796 tau/day, 7451.629 timesteps/s
98.1% CPU use with 4 MPI tasks x 1 OpenMP threads

MPI task timing breakdown:
Section |  min time  |  avg time  |  max time  |%varavg| %total
---------------------------------------------------------------
Pair    | 0.86788    | 0.89995    | 0.96767    |   4.3 | 33.53
Bond    | 0.042116   | 0.044146   | 0.045808   |   0.7 |  1.64
Neigh   | 0.21304    | 0.21581    | 0.21789    |   0.4 |  8.04
Comm    | 0.31904    | 0.39589    | 0.43482    |   7.3 | 14.75
Output  | 0.0006125  | 0.00064707 | 0.00074458 |   0.0 |  0.02
Modify  | 1.0147     | 1.0301     | 1.0415     |   1.0 | 38.38
Other   |            | 0.09744    |            |       |  3.63

Nlocal:    300 ave 301 max 298 min
Histogram: 1 0 0 0 0 0 1 0 0 2
Nghost:    218.5 ave 226 max 211 min
Histogram: 1 0 0 1 0 0 1 0 0 1
Neighs:    2291.5 ave 2312 max 2243 min
Histogram: 1 0 0 0 0 0 0 0 1 2

Total # of neighbors = 9166
Ave neighs/atom = 7.63833
Ave special neighs/atom = 0.5
Neighbor list builds = 1582
Dangerous builds = 0
Total wall time: 0:00:06
