LAMMPS (28 Feb 2019)
  using 1 OpenMP thread(s) per MPI task
# 2d micelle simulation

dimension	2

neighbor	0.3 bin
neigh_modify	delay 5

atom_style	bond

# Soft potential push-off

read_data	data.micelle
  orthogonal box = (0 0 -0.1) to (35.8569 35.8569 0.1)
  1 by 1 by 1 MPI processor grid
  reading atoms ...
  1200 atoms
  scanning bonds ...
  1 = max bonds/atom
  reading bonds ...
  300 bonds
  2 = max # of 1-2 neighbors
  1 = max # of 1-3 neighbors
  1 = max # of 1-4 neighbors
  2 = max # of special neighbors
  special bonds CPU = 0.000471592 secs
  read_data CPU = 0.0024209 secs
special_bonds	fene
  2 = max # of 1-2 neighbors
  2 = max # of special neighbors
  special bonds CPU = 0.000236034 secs

pair_style	soft 1.12246
pair_coeff	* * 0.0 1.12246

bond_style 	harmonic
bond_coeff	1 50.0 0.75

velocity	all create 0.45 2349852

variable	prefactor equal ramp(1.0,20.0)

fix		1 all nve
fix		2 all temp/rescale 100 0.45 0.45 0.02 1.0
fix		3 all adapt 1 pair soft a * * v_prefactor
fix		4 all enforce2d

thermo		50
run		1000
Neighbor list info ...
  update every 1 steps, delay 5 steps, check yes
  max neighbors/atom: 2000, page size: 100000
  master list distance cutoff = 1.42246
  ghost atom cutoff = 1.42246
  binsize = 0.71123, bins = 51 51 1
  1 neighbor lists, perpetual/occasional/extra = 1 0 0
  (1) pair soft, perpetual
      attributes: half, newton on
      pair build: half/bin/newton
      stencil: half/bin/2d/newton
      bin: standard
Per MPI rank memory allocation (min/avg/max) = 3.799 | 3.799 | 3.799 Mbytes
Step Temp E_pair E_mol TotEng Press 
       0         0.45   0.40003481 2.2200223e-06   0.84966203   0.78952518 
      50   0.47411013   0.67721272  0.057404514    1.2083323    1.3375852 
     100         0.45   0.73046745  0.054836584     1.234929    2.3196516 
     150   0.67521742   0.72402001  0.043490075    1.4421648    2.8744416 
     200         0.45   0.78481891  0.076931503    1.3113754    3.0412388 
     250   0.66479018   0.69790602  0.081075564    1.4432178    3.6917024 
     300         0.45   0.76820218  0.066727591    1.2845548    3.7861054 
     350   0.67619136     0.625715  0.072722727    1.3740656    4.2861621 
     400         0.45   0.68527759  0.090724527    1.2256271    4.4725214 
     450   0.56702844   0.64402767  0.080555563    1.2911391    4.7402211 
     500         0.45   0.64883009  0.078376672    1.1768318    4.7919294 
     550     0.564664   0.58260368  0.080779475    1.2275766    4.9855705 
     600         0.45   0.58193041  0.088386617     1.119942     5.131481 
     650   0.52110993    0.5415273  0.097683746    1.1598867    5.2500294 
     700         0.45   0.50856787  0.088471208    1.0466641    5.2550165 
     750   0.51510855   0.47441291  0.089429375    1.0785216     5.375763 
     800         0.45   0.49926696  0.085958476    1.0348504    5.4665914 
     850   0.50688494   0.46614429  0.088962292    1.0615691     5.556932 
     900         0.45   0.47785593   0.10150857    1.0289895    5.7765975 
     950   0.49590559   0.46050477  0.096404887     1.052402    5.8649245 
    1000         0.45   0.47691182   0.08808163    1.0146185    6.0177568 
Loop time of 0.202855 on 1 procs for 1000 steps with 1200 atoms

Performance: 2129598.804 tau/day, 4929.627 timesteps/s
99.6% CPU use with 1 MPI tasks x 1 OpenMP threads

MPI task timing breakdown:
Section |  min time  |  avg time  |  max time  |%varavg| %total
---------------------------------------------------------------
Pair    | 0.13733    | 0.13733    | 0.13733    |   0.0 | 67.70
Bond    | 0.0082436  | 0.0082436  | 0.0082436  |   0.0 |  4.06
Neigh   | 0.024882   | 0.024882   | 0.024882   |   0.0 | 12.27
Comm    | 0.0035896  | 0.0035896  | 0.0035896  |   0.0 |  1.77
Output  | 0.00034833 | 0.00034833 | 0.00034833 |   0.0 |  0.17
Modify  | 0.022969   | 0.022969   | 0.022969   |   0.0 | 11.32
Other   |            | 0.005489   |            |       |  2.71

Nlocal:    1200 ave 1200 max 1200 min
Histogram: 1 0 0 0 0 0 0 0 0 0
Nghost:    195 ave 195 max 195 min
Histogram: 1 0 0 0 0 0 0 0 0 0
Neighs:    3136 ave 3136 max 3136 min
Histogram: 1 0 0 0 0 0 0 0 0 0

Total # of neighbors = 3136
Ave neighs/atom = 2.61333
Ave special neighs/atom = 0.5
Neighbor list builds = 92
Dangerous builds = 0

unfix		3

# Main run

pair_style	lj/cut 2.5

# solvent/head - full-size and long-range

pair_coeff	1 1 1.0 1.0 2.5
pair_coeff	2 2 1.0 1.0 2.5
pair_coeff	1 2 1.0 1.0 2.5

# tail/tail - size-averaged and long-range

pair_coeff	3 3 1.0 0.75 2.5
pair_coeff	4 4 1.0 0.50 2.5
pair_coeff	3 4 1.0 0.67 2.5

# solvent/tail - full-size and repulsive

pair_coeff	1 3 1.0 1.0 1.12246
pair_coeff	1 4 1.0 1.0 1.12246

# head/tail - size-averaged and repulsive

pair_coeff	2 3 1.0 0.88 1.12246
pair_coeff	2 4 1.0 0.75 1.12246

thermo		1000

#dump		1 all atom 2000 dump.micelle

#dump		2 all image 2000 image.*.jpg type type zoom 1.6
#dump_modify	2 pad 5 adiam 1 0.5 adiam 2 1.5 adiam 3 1.0 adiam 4 0.75

#dump		3 all movie 2000 movie.mpg type type zoom 1.6
#dump_modify	3 pad 5 adiam 1 0.5 adiam 2 1.5 adiam 3 1.0 adiam 4 0.75

reset_timestep	0
group solvent   molecule 0
750 atoms in group solvent
group solute    subtract all solvent
450 atoms in group solute
unfix 1
unfix 2
unfix 4
fix		1 solvent nve
fix		2 solvent temp/rescale 100 0.45 0.45 0.02 1.0
fix		5 solute rigid molecule langevin 0.45 0.45 0.5 112211
150 rigid bodies with 450 atoms
fix		4 all enforce2d
run		20000
Neighbor list info ...
  update every 1 steps, delay 5 steps, check yes
  max neighbors/atom: 2000, page size: 100000
  master list distance cutoff = 2.8
  ghost atom cutoff = 2.8
  binsize = 1.4, bins = 26 26 1
  1 neighbor lists, perpetual/occasional/extra = 1 0 0
  (1) pair lj/cut, perpetual
      attributes: half, newton on
      pair build: half/bin/newton
      stencil: half/bin/2d/newton
      bin: standard
Per MPI rank memory allocation (min/avg/max) = 5.274 | 5.274 | 5.274 Mbytes
Step Temp E_pair E_mol TotEng Press 
       0   0.44603578   -1.7056163   0.08808163   -1.2555023    3.4039736 
    1000   0.46008167   -1.9040837   0.08808163   -1.4425692    0.9322542 
    2000    0.4451219   -1.9296644   0.08808163   -1.4802921    3.8409226 
    3000   0.43568999   -1.9562739   0.08808163   -1.5145573    2.8292546 
    4000   0.45556056   -1.9803315   0.08808163   -1.5224866   -1.5271258 
    5000   0.44686353   -1.9741058   0.08808163     -1.52332    1.7959794 
    6000   0.44776387   -1.9923326   0.08808163    -1.540816    1.3710001 
    7000   0.44107284   -1.9825886   0.08808163   -1.5365029    4.3249491 
    8000   0.45252634   -1.9994678   0.08808163   -1.5440856   -3.2798888 
    9000   0.45483598   -2.0120105   0.08808163   -1.5547537    5.1599005 
   10000    0.4432111   -2.0161984   0.08808163   -1.5683771   0.16884093 
   11000    0.4605314   -2.0223081   0.08808163   -1.5604285   -1.1885931 
   12000   0.43315072   -2.0238674   0.08808163   -1.5842118   -1.8221355 
   13000   0.44017197   -2.0120895   0.08808163   -1.5667349    2.0607518 
   14000   0.44502213   -2.0310927   0.08808163   -1.5818014   0.77141143 
   15000   0.45198148   -2.0443394   0.08808163   -1.5893994    -1.941797 
   16000   0.45182064   -2.0226253   0.08808163   -1.5678159   0.18874883 
   17000   0.45851256   -2.0508746   0.08808163   -1.5906336   -5.7777739 
   18000   0.45969239   -2.0365362   0.08808163   -1.5753376   -0.9387053 
   19000   0.45914612   -2.0426319   0.08808163   -1.5818767    1.5097511 
   20000   0.44546961   -2.0341731   0.08808163   -1.5845186   0.91817901 
Loop time of 6.83952 on 1 procs for 20000 steps with 1200 atoms

Performance: 1263247.208 tau/day, 2924.183 timesteps/s
99.6% CPU use with 1 MPI tasks x 1 OpenMP threads

MPI task timing breakdown:
Section |  min time  |  avg time  |  max time  |%varavg| %total
---------------------------------------------------------------
Pair    | 3.3771     | 3.3771     | 3.3771     |   0.0 | 49.38
Bond    | 0.16474    | 0.16474    | 0.16474    |   0.0 |  2.41
Neigh   | 0.70735    | 0.70735    | 0.70735    |   0.0 | 10.34
Comm    | 0.097359   | 0.097359   | 0.097359   |   0.0 |  1.42
Output  | 0.00037456 | 0.00037456 | 0.00037456 |   0.0 |  0.01
Modify  | 2.374      | 2.374      | 2.374      |   0.0 | 34.71
Other   |            | 0.1186     |            |       |  1.73

Nlocal:    1200 ave 1200 max 1200 min
Histogram: 1 0 0 0 0 0 0 0 0 0
Nghost:    415 ave 415 max 415 min
Histogram: 1 0 0 0 0 0 0 0 0 0
Neighs:    8868 ave 8868 max 8868 min
Histogram: 1 0 0 0 0 0 0 0 0 0

Total # of neighbors = 8868
Ave neighs/atom = 7.39
Ave special neighs/atom = 0.5
Neighbor list builds = 1582
Dangerous builds = 0
unfix 5
unfix 4
fix		5 solute rigid/small molecule langevin 0.45 0.45 0.5 112211
  create bodies CPU = 0.000155926 secs
150 rigid bodies with 450 atoms
  1.0929 = max distance from body owner to body atom
fix		4 all enforce2d
run		20000
Per MPI rank memory allocation (min/avg/max) = 8.646 | 8.646 | 8.646 Mbytes
Step Temp E_pair E_mol TotEng Press 
   20000   0.44546961   -2.0341731   0.08808163   -1.5845186 -0.019353381 
   21000   0.46150059   -2.0404466   0.08808163   -1.5777803    1.4621018 
   22000   0.44640311   -2.0539295   0.08808163   -1.6035173    2.9678442 
   23000   0.45338441   -2.0318378   0.08808163   -1.5757592    3.3086638 
   24000   0.46127513   -2.0390522   0.08808163    -1.576569  -0.61671171 
   25000   0.44871048   -2.0561392   0.08808163   -1.6038542   0.15208608 
   26000   0.45722644   -2.0278999   0.08808163   -1.5687028    2.6328621 
   27000   0.43449706   -2.0173733   0.08808163   -1.5766249   0.21714509 
   28000   0.46591497   -2.0609499   0.08808163   -1.5947006   -4.9920422 
   29000   0.45637458   -2.0577872   0.08808163   -1.5992815     2.212594 
   30000   0.45197836   -2.0454478   0.08808163   -1.5905104    3.7016359 
   31000    0.4597717   -2.0632062   0.08808163   -1.6019432   0.91106773 
   32000   0.44777776    -2.061563   0.08808163    -1.610035   -1.4295559 
   33000   0.44345103   -2.0666676   0.08808163   -1.6186515   0.97655014 
   34000   0.43781854   -2.0859069   0.08808163   -1.6424626    1.3199843 
   35000   0.44796819   -2.0582913   0.08808163   -1.6066089   -2.4322623 
   36000   0.43665234   -2.0659487   0.08808163   -1.6234509   -3.8767477 
   37000   0.44600078   -2.0751646   0.08808163    -1.625079   -4.4169471 
   38000   0.44271007   -2.0860731   0.08808163   -1.6386585    3.1789686 
   39000   0.43887938   -2.0662446   0.08808163   -1.6219392 -0.079255855 
   40000   0.45261093   -2.0870107   0.08808163   -1.6315599   -1.5089227 
Loop time of 6.93763 on 1 procs for 20000 steps with 1200 atoms

Performance: 1245382.294 tau/day, 2882.829 timesteps/s
99.6% CPU use with 1 MPI tasks x 1 OpenMP threads

MPI task timing breakdown:
Section |  min time  |  avg time  |  max time  |%varavg| %total
---------------------------------------------------------------
Pair    | 3.4619     | 3.4619     | 3.4619     |   0.0 | 49.90
Bond    | 0.16493    | 0.16493    | 0.16493    |   0.0 |  2.38
Neigh   | 0.70806    | 0.70806    | 0.70806    |   0.0 | 10.21
Comm    | 0.097248   | 0.097248   | 0.097248   |   0.0 |  1.40
Output  | 0.00037313 | 0.00037313 | 0.00037313 |   0.0 |  0.01
Modify  | 2.3791     | 2.3791     | 2.3791     |   0.0 | 34.29
Other   |            | 0.126      |            |       |  1.82

Nlocal:    1200 ave 1200 max 1200 min
Histogram: 1 0 0 0 0 0 0 0 0 0
Nghost:    404 ave 404 max 404 min
Histogram: 1 0 0 0 0 0 0 0 0 0
Neighs:    9262 ave 9262 max 9262 min
Histogram: 1 0 0 0 0 0 0 0 0 0

Total # of neighbors = 9262
Ave neighs/atom = 7.71833
Ave special neighs/atom = 0.5
Neighbor list builds = 1573
Dangerous builds = 0
Total wall time: 0:00:13
