LAMMPS (6 Jul 2017)
  using 1 OpenMP thread(s) per MPI task
# 2d micelle simulation

dimension	2

neighbor	0.3 bin
neigh_modify	delay 5

atom_style	bond

# Soft potential push-off

read_data	data.micelle
  orthogonal box = (0 0 -0.1) to (35.8569 35.8569 0.1)
  1 by 1 by 1 MPI processor grid
  reading atoms ...
  1200 atoms
  scanning bonds ...
  1 = max bonds/atom
  reading bonds ...
  300 bonds
  2 = max # of 1-2 neighbors
  1 = max # of 1-3 neighbors
  1 = max # of 1-4 neighbors
  2 = max # of special neighbors
special_bonds	fene
  2 = max # of 1-2 neighbors
  2 = max # of special neighbors

pair_style	soft 1.12246
pair_coeff	* * 0.0 1.12246

bond_style 	harmonic
bond_coeff	1 50.0 0.75

velocity	all create 0.45 2349852

variable	prefactor equal ramp(1.0,20.0)

fix		1 all nve
fix		2 all temp/rescale 100 0.45 0.45 0.02 1.0
fix		3 all adapt 1 pair soft a * * v_prefactor
fix		4 all enforce2d

thermo		50
run		1000
Neighbor list info ...
  update every 1 steps, delay 5 steps, check yes
  max neighbors/atom: 2000, page size: 100000
  master list distance cutoff = 1.42246
  ghost atom cutoff = 1.42246
  binsize = 0.71123, bins = 51 51 1
  1 neighbor lists, perpetual/occasional/extra = 1 0 0
  (1) pair soft, perpetual
      attributes: half, newton on
      pair build: half/bin/newton
      stencil: half/bin/2d/newton
      bin: standard
Per MPI rank memory allocation (min/avg/max) = 3.799 | 3.799 | 3.799 Mbytes
Step Temp E_pair E_mol TotEng Press 
       0         0.45   0.40003481 2.2200223e-06   0.84966203   0.78952518 
      50   0.47411013   0.67721272  0.057404514    1.2083323    1.3375852 
     100         0.45   0.73046745  0.054836584     1.234929    2.3196516 
     150   0.67521742   0.72402001  0.043490075    1.4421648    2.8744416 
     200         0.45   0.78481891  0.076931503    1.3113754    3.0412388 
     250   0.66479018   0.69790602  0.081075564    1.4432178    3.6917024 
     300         0.45   0.76820218  0.066727591    1.2845548    3.7861054 
     350   0.67619136     0.625715  0.072722727    1.3740656    4.2861621 
     400         0.45   0.68527759  0.090724527    1.2256271    4.4725214 
     450   0.56702844   0.64402767  0.080555563    1.2911391    4.7402211 
     500         0.45   0.64883009  0.078376672    1.1768318    4.7919294 
     550     0.564664   0.58260368  0.080779475    1.2275766    4.9855705 
     600         0.45   0.58193041  0.088386617     1.119942     5.131481 
     650   0.52110993    0.5415273  0.097683746    1.1598867    5.2500294 
     700         0.45   0.50856787  0.088471208    1.0466641    5.2550165 
     750   0.51510855   0.47441291  0.089429375    1.0785216     5.375763 
     800         0.45   0.49926696  0.085958476    1.0348504    5.4665914 
     850   0.50688494   0.46614429  0.088962292    1.0615691     5.556932 
     900         0.45   0.47785593   0.10150857    1.0289895    5.7765975 
     950   0.49590559   0.46050477  0.096404887     1.052402    5.8649245 
    1000         0.45   0.47691182   0.08808163    1.0146185    6.0177568 
Loop time of 0.214353 on 1 procs for 1000 steps with 1200 atoms

Performance: 2015368.621 tau/day, 4665.205 timesteps/s
99.6% CPU use with 1 MPI tasks x 1 OpenMP threads

MPI task timing breakdown:
Section |  min time  |  avg time  |  max time  |%varavg| %total
---------------------------------------------------------------
Pair    | 0.15173    | 0.15173    | 0.15173    |   0.0 | 70.79
Bond    | 0.0084634  | 0.0084634  | 0.0084634  |   0.0 |  3.95
Neigh   | 0.022375   | 0.022375   | 0.022375   |   0.0 | 10.44
Comm    | 0.0034366  | 0.0034366  | 0.0034366  |   0.0 |  1.60
Output  | 0.00030446 | 0.00030446 | 0.00030446 |   0.0 |  0.14
Modify  | 0.022997   | 0.022997   | 0.022997   |   0.0 | 10.73
Other   |            | 0.005045   |            |       |  2.35

Nlocal:    1200 ave 1200 max 1200 min
Histogram: 1 0 0 0 0 0 0 0 0 0
Nghost:    195 ave 195 max 195 min
Histogram: 1 0 0 0 0 0 0 0 0 0
Neighs:    3136 ave 3136 max 3136 min
Histogram: 1 0 0 0 0 0 0 0 0 0

Total # of neighbors = 3136
Ave neighs/atom = 2.61333
Ave special neighs/atom = 0.5
Neighbor list builds = 92
Dangerous builds = 0

unfix		3

# Main run

pair_style	lj/cut 2.5

# solvent/head - full-size and long-range

pair_coeff	1 1 1.0 1.0 2.5
pair_coeff	2 2 1.0 1.0 2.5
pair_coeff	1 2 1.0 1.0 2.5

# tail/tail - size-averaged and long-range

pair_coeff	3 3 1.0 0.75 2.5
pair_coeff	4 4 1.0 0.50 2.5
pair_coeff	3 4 1.0 0.67 2.5

# solvent/tail - full-size and repulsive

pair_coeff	1 3 1.0 1.0 1.12246
pair_coeff	1 4 1.0 1.0 1.12246

# head/tail - size-averaged and repulsive

pair_coeff	2 3 1.0 0.88 1.12246
pair_coeff	2 4 1.0 0.75 1.12246

thermo		1000

#dump		1 all atom 2000 dump.micelle

#dump		2 all image 2000 image.*.jpg type type zoom 1.6
#dump_modify	2 pad 5 adiam 1 0.5 adiam 2 1.5 adiam 3 1.0 adiam 4 0.75

#dump		3 all movie 2000 movie.mpg type type zoom 1.6
#dump_modify	3 pad 5 adiam 1 0.5 adiam 2 1.5 adiam 3 1.0 adiam 4 0.75

reset_timestep	0
group solvent   molecule 0
750 atoms in group solvent
group solute    subtract all solvent
450 atoms in group solute
unfix 1
unfix 2
unfix 4
fix		1 solvent nve
fix		2 solvent temp/rescale 100 0.45 0.45 0.02 1.0
fix		5 solute rigid molecule langevin 0.45 0.45 0.5 112211
150 rigid bodies with 450 atoms
fix		4 all enforce2d
run		20000
Neighbor list info ...
  update every 1 steps, delay 5 steps, check yes
  max neighbors/atom: 2000, page size: 100000
  master list distance cutoff = 2.8
  ghost atom cutoff = 2.8
  binsize = 1.4, bins = 26 26 1
  1 neighbor lists, perpetual/occasional/extra = 1 0 0
  (1) pair lj/cut, perpetual
      attributes: half, newton on
      pair build: half/bin/newton
      stencil: half/bin/2d/newton
      bin: standard
Per MPI rank memory allocation (min/avg/max) = 5.274 | 5.274 | 5.274 Mbytes
Step Temp E_pair E_mol TotEng Press 
       0   0.44725304   -1.7056163   0.08808163   -1.2545143    1.3139355 
    1000   0.45788569   -1.9287825  0.088103524   -1.4690284   0.92875277 
    2000   0.43501049   -1.9136183  0.088459841   -1.4720749    5.5055594 
    3000   0.46197964   -1.9567252  0.088761541   -1.4929902    2.4938648 
    4000   0.43383553   -1.9406678  0.089476333   -1.4990616   -1.7732456 
    5000   0.43308796   -1.9604154  0.088130127   -1.5207622   0.60466741 
    6000   0.44815176   -1.9663559  0.088489758   -1.5141163    1.7205926 
    7000    0.4477147   -1.9622205  0.088049245   -1.5107762    4.2742155 
    8000   0.44269731   -1.9742655    0.0899317   -1.5250111   -5.0313769 
    9000   0.44768149   -1.9985199  0.089447252   -1.5457045    5.2025126 
   10000   0.44644561   -1.9840855   0.08857281   -1.5331476     1.226711 
   11000   0.45463351   -1.9880823  0.088081981   -1.5309894   -2.2750821 
   12000   0.46722422   -2.0237281  0.088561255   -1.5559365   -0.8631431 
   13000   0.46097259   -2.0340734  0.089445916   -1.5704714    3.0431921 
   14000    0.4468341   -2.0226629  0.088872434   -1.5711101  -0.96824374 
   15000   0.47139127   -2.0327031  0.088305749   -1.5617848   -1.8004353 
   16000   0.44708595    -2.052377  0.087812143   -1.6016801   0.45758516 
   17000   0.43402722   -2.0179994  0.088421255   -1.5772927   -5.0373197 
   18000   0.44434444    -2.010583  0.089005394    -1.560918   -1.2207377 
   19000   0.44333178   -2.0494594  0.088160975   -1.6014608   0.18978337 
   20000   0.45283472   -2.0377543  0.088113684   -1.5820897  -0.67752882 
Loop time of 6.55496 on 1 procs for 20000 steps with 1200 atoms

Performance: 1318085.940 tau/day, 3051.125 timesteps/s
99.6% CPU use with 1 MPI tasks x 1 OpenMP threads

MPI task timing breakdown:
Section |  min time  |  avg time  |  max time  |%varavg| %total
---------------------------------------------------------------
Pair    | 3.1682     | 3.1682     | 3.1682     |   0.0 | 48.33
Bond    | 0.16748    | 0.16748    | 0.16748    |   0.0 |  2.56
Neigh   | 0.69292    | 0.69292    | 0.69292    |   0.0 | 10.57
Comm    | 0.095032   | 0.095032   | 0.095032   |   0.0 |  1.45
Output  | 0.0004046  | 0.0004046  | 0.0004046  |   0.0 |  0.01
Modify  | 2.322      | 2.322      | 2.322      |   0.0 | 35.42
Other   |            | 0.109      |            |       |  1.66

Nlocal:    1200 ave 1200 max 1200 min
Histogram: 1 0 0 0 0 0 0 0 0 0
Nghost:    398 ave 398 max 398 min
Histogram: 1 0 0 0 0 0 0 0 0 0
Neighs:    8852 ave 8852 max 8852 min
Histogram: 1 0 0 0 0 0 0 0 0 0

Total # of neighbors = 8852
Ave neighs/atom = 7.37667
Ave special neighs/atom = 0.5
Neighbor list builds = 1578
Dangerous builds = 0
unfix 5
unfix 4
fix		5 solute rigid/small molecule langevin 0.45 0.45 0.5 112211
150 rigid bodies with 450 atoms
  36.5274 = max distance from body owner to body atom
fix		4 all enforce2d
run		20000
Per MPI rank memory allocation (min/avg/max) = 8.631 | 8.631 | 8.631 Mbytes
Step Temp E_pair E_mol TotEng Press 
   20000   0.45283472   -2.0377543  0.088113684   -1.5820897 -0.063240015 
   21000   0.43960776   -2.0133812  0.088607686   -1.5679586    1.4590388 
   22000   0.44527605   -2.0757626  0.088281169   -1.6260657    2.3606268 
   23000   0.43487595   -2.0381822  0.087661491   -1.5975464  -0.48769992 
   24000   0.45617004   -2.0446419   0.08833813   -1.5860458   -1.0466633 
   25000   0.44695915   -2.0438184  0.088282872   -1.5927537    2.7032745 
   26000   0.42866518   -2.0299799  0.089778362   -1.5922683    5.6583152 
   27000   0.43306863   -2.0393434  0.089696723   -1.5981393    -3.124972 
   28000   0.44259076   -2.0392483  0.088985351   -1.5910268   -7.3570525 
   29000   0.46105518   -2.0308283  0.088179008   -1.5684262    4.0636029 
   30000   0.44202534    -2.068046  0.088027511   -1.6212412    1.9684448 
   31000   0.46244543   -2.0660498  0.087859807   -1.6028384   0.33377796 
   32000   0.43486517   -2.0618724  0.088709554   -1.6201973   -2.0443766 
   33000   0.45554078   -2.0335613   0.08815106   -1.5756629    1.5430551 
   34000   0.45571838   -2.0537448   0.08885187   -1.5950016    2.4883158 
   35000   0.44597979   -2.0887873  0.089243657   -1.6375567   -2.3341515 
   36000   0.45263075   -2.0614484  0.088422868   -1.6056402   -5.5618151 
   37000   0.45820044    -2.068213  0.088911053   -1.6073959   -5.6314291 
   38000   0.44268638   -2.0698613  0.087835084   -1.6227124    1.1455247 
   39000   0.44204601   -2.0627539  0.088224257   -1.6157356    1.4513918 
   40000   0.45588346   -2.0621112  0.089271788    -1.602814    1.1010444 
Loop time of 6.61653 on 1 procs for 20000 steps with 1200 atoms

Performance: 1305820.952 tau/day, 3022.734 timesteps/s
99.2% CPU use with 1 MPI tasks x 1 OpenMP threads

MPI task timing breakdown:
Section |  min time  |  avg time  |  max time  |%varavg| %total
---------------------------------------------------------------
Pair    | 3.2555     | 3.2555     | 3.2555     |   0.0 | 49.20
Bond    | 0.16724    | 0.16724    | 0.16724    |   0.0 |  2.53
Neigh   | 0.69154    | 0.69154    | 0.69154    |   0.0 | 10.45
Comm    | 0.093005   | 0.093005   | 0.093005   |   0.0 |  1.41
Output  | 0.0005641  | 0.0005641  | 0.0005641  |   0.0 |  0.01
Modify  | 2.2963     | 2.2963     | 2.2963     |   0.0 | 34.71
Other   |            | 0.1123     |            |       |  1.70

Nlocal:    1200 ave 1200 max 1200 min
Histogram: 1 0 0 0 0 0 0 0 0 0
Nghost:    390 ave 390 max 390 min
Histogram: 1 0 0 0 0 0 0 0 0 0
Neighs:    9182 ave 9182 max 9182 min
Histogram: 1 0 0 0 0 0 0 0 0 0

Total # of neighbors = 9182
Ave neighs/atom = 7.65167
Ave special neighs/atom = 0.5
Neighbor list builds = 1576
Dangerous builds = 0
Total wall time: 0:00:13
