LAMMPS (24 Aug 2020)
# 2d micelle simulation

dimension	2

neighbor	0.3 bin
neigh_modify	delay 5

atom_style	bond

# Soft potential push-off

read_data	data.micelle
Reading data file ...
  orthogonal box = (0.0000000 0.0000000 -0.1) to (35.856860 35.856860 0.1)
  4 by 2 by 1 MPI processor grid
  reading atoms ...
  1200 atoms
  scanning bonds ...
  1 = max bonds/atom
  reading bonds ...
  300 bonds
Finding 1-2 1-3 1-4 neighbors ...
  special bond factors lj:    0.0      0.0      0.0     
  special bond factors coul:  0.0      0.0      0.0     
     2 = max # of 1-2 neighbors
     1 = max # of 1-3 neighbors
     1 = max # of 1-4 neighbors
     2 = max # of special neighbors
  special bonds CPU = 0.001 seconds
  read_data CPU = 0.007 seconds
special_bonds	fene
Finding 1-2 1-3 1-4 neighbors ...
  special bond factors lj:    0.0      1.0      1.0     
  special bond factors coul:  0.0      1.0      1.0     
     2 = max # of 1-2 neighbors
     2 = max # of special neighbors
  special bonds CPU = 0.000 seconds

pair_style	soft 1.12246
pair_coeff	* * 0.0 1.12246

bond_style 	harmonic
bond_coeff	1 50.0 0.75

velocity	all create 0.45 2349852

variable	prefactor equal ramp(1.0,20.0)

fix		1 all nve
fix		2 all temp/rescale 100 0.45 0.45 0.02 1.0
fix		3 all adapt 1 pair soft a * * v_prefactor
fix		4 all enforce2d

thermo		50
run		500
Neighbor list info ...
  update every 1 steps, delay 5 steps, check yes
  max neighbors/atom: 2000, page size: 100000
  master list distance cutoff = 1.42246
  ghost atom cutoff = 1.42246
  binsize = 0.71123, bins = 51 51 1
  1 neighbor lists, perpetual/occasional/extra = 1 0 0
  (1) pair soft, perpetual
      attributes: half, newton on
      pair build: half/bin/newton
      stencil: half/bin/2d/newton
      bin: standard
WARNING: Communication cutoff 1.42246 is shorter than a bond length based estimate of 1.425. This may lead to errors. (src/comm.cpp:667)
Per MPI rank memory allocation (min/avg/max) = 4.122 | 4.122 | 4.122 Mbytes
Step Temp E_pair E_mol TotEng Press 
       0         0.45   0.40003481 2.2200223e-06   0.84966203   0.78952518 
      50   0.54981866   0.93548899  0.068440043    1.5532895    1.9232786 
     100         0.45   0.99659327  0.079228519    1.5254468    3.2135679 
     150   0.86965411   0.90456016   0.07493355    1.8484231    4.3821925 
     200         0.45      1.01454   0.10663502       1.5708    4.7598476 
     250   0.79636561   0.82567712   0.12105337    1.7424325    5.4983899 
     300         0.45   0.86475538   0.11819875    1.4325791    5.8554758 
     350   0.72135464   0.70693069   0.10912636    1.5368106    6.0388247 
     400         0.45   0.75067331   0.14165013    1.3419484    6.3840708 
     450   0.64839221   0.62402486   0.14173679    1.4136135    6.4791009 
     500         0.45   0.66669513   0.13695201    1.2532721     6.807146 
Loop time of 0.0949955 on 8 procs for 500 steps with 1200 atoms

Performance: 2273791.358 tau/day, 5263.406 timesteps/s
84.5% CPU use with 8 MPI tasks x no OpenMP threads

MPI task timing breakdown:
Section |  min time  |  avg time  |  max time  |%varavg| %total
---------------------------------------------------------------
Pair    | 0.0094032  | 0.014703   | 0.033111   |   6.1 | 15.48
Bond    | 0.00044083 | 0.00057483 | 0.00069577 |   0.0 |  0.61
Neigh   | 0.0037189  | 0.0039794  | 0.0042806  |   0.4 |  4.19
Comm    | 0.03396    | 0.048518   | 0.065962   |   4.9 | 51.07
Output  | 0.00038808 | 0.00050867 | 0.0012859  |   0.0 |  0.54
Modify  | 0.0025485  | 0.0030974  | 0.0043406  |   1.0 |  3.26
Other   |            | 0.02361    |            |       | 24.86

Nlocal:        150.000 ave         154 max         145 min
Histogram: 1 0 1 1 1 1 0 0 1 2
Nghost:        79.7500 ave          86 max          71 min
Histogram: 1 0 0 0 2 1 1 0 2 1
Neighs:        386.750 ave         407 max         361 min
Histogram: 1 0 1 0 1 1 1 1 1 1

Total # of neighbors = 3094
Ave neighs/atom = 2.5783333
Ave special neighs/atom = 0.5
Neighbor list builds = 52
Dangerous builds = 0

unfix		3

# Main run

pair_style	lj/cut 2.5

# solvent/head - full-size and long-range

pair_coeff	1 1 1.0 1.0 2.5
pair_coeff	2 2 1.0 1.0 2.5
pair_coeff	1 2 1.0 1.0 2.5

# tail/tail - size-averaged and long-range

pair_coeff	3 3 1.0 0.75 2.5
pair_coeff	4 4 1.0 0.50 2.5
pair_coeff	3 4 1.0 0.67 2.5

# solvent/tail - full-size and repulsive

pair_coeff	1 3 1.0 1.0 1.12246
pair_coeff	1 4 1.0 1.0 1.12246

# head/tail - size-averaged and repulsive

pair_coeff	2 3 1.0 0.88 1.12246
pair_coeff	2 4 1.0 0.75 1.12246

thermo		50

#dump		1 all atom 2000 dump.micelle

#dump		2 all image 2000 image.*.jpg type type zoom 1.6
#dump_modify	2 pad 5 adiam 1 0.5 adiam 2 1.5 adiam 3 1.0 adiam 4 0.75

#dump		3 all movie 2000 movie.mpg type type zoom 1.6
#dump_modify	3 pad 5 adiam 1 0.5 adiam 2 1.5 adiam 3 1.0 adiam 4 0.75

reset_timestep	0
group solvent   molecule 0
750 atoms in group solvent
group solute    subtract all solvent
450 atoms in group solute
unfix 1
unfix 2
unfix 4
fix		1 solvent nve
fix		2 solvent temp/rescale 100 0.45 0.45 0.02 1.0
fix		5 solute rigid molecule langevin 0.45 0.45 0.5 112211
  150 rigid bodies with 450 atoms
fix		4 all enforce2d
run		500
Neighbor list info ...
  update every 1 steps, delay 5 steps, check yes
  max neighbors/atom: 2000, page size: 100000
  master list distance cutoff = 2.8
  ghost atom cutoff = 2.8
  binsize = 1.4, bins = 26 26 1
  1 neighbor lists, perpetual/occasional/extra = 1 0 0
  (1) pair lj/cut, perpetual
      attributes: half, newton on
      pair build: half/bin/newton
      stencil: half/bin/2d/newton
      bin: standard
Per MPI rank memory allocation (min/avg/max) = 5.372 | 5.372 | 5.372 Mbytes
Step Temp E_pair E_mol TotEng Press 
       0   0.45318168   -1.3753652   0.13695201   -0.8705807     1.975423 
      50   0.77436318   -1.6951247   0.13695201  -0.92964788   0.56385986 
     100    3.3306294   -1.7312648   0.13695201     1.109048    2.1859584 
     150    20.925041   -1.7839132   0.13695201    15.337197    16.623879 
     200    51.511431   -1.8015128   0.13695201    40.145551    42.135146 
     250    134.19514   -1.8523225   0.13695201    107.20635    104.05358 
     300    234.97337   -1.8571782   0.13695201    188.99983    180.37219 
     350    499.69245   -1.8851914   0.13695201    403.83546     373.3132 
     400    1068.0159   -1.8807544   0.13695201    865.12913    804.60772 
     450    2343.4786   -1.8982448   0.13695201    1900.3622    1778.0319 
     500    4911.9251   -1.9071064   0.13696791    3985.0757    3720.0875 
Loop time of 0.117835 on 8 procs for 500 steps with 1200 atoms

Performance: 1833076.280 tau/day, 4243.232 timesteps/s
98.2% CPU use with 8 MPI tasks x no OpenMP threads

MPI task timing breakdown:
Section |  min time  |  avg time  |  max time  |%varavg| %total
---------------------------------------------------------------
Pair    | 0.01174    | 0.013467   | 0.016597   |   1.3 | 11.43
Bond    | 0.00048302 | 0.00059894 | 0.00089583 |   0.0 |  0.51
Neigh   | 0.0055615  | 0.0057886  | 0.005898   |   0.2 |  4.91
Comm    | 0.014994   | 0.019496   | 0.022936   |   1.8 | 16.54
Output  | 0.00049635 | 0.00053428 | 0.00064882 |   0.0 |  0.45
Modify  | 0.066776   | 0.070491   | 0.076313   |   1.1 | 59.82
Other   |            | 0.007459   |            |       |  6.33

Nlocal:        150.000 ave         154 max         144 min
Histogram: 1 0 0 0 0 2 1 2 1 1
Nghost:        171.875 ave         177 max         165 min
Histogram: 1 1 0 0 0 2 1 1 0 2
Neighs:        1092.25 ave        1141 max        1027 min
Histogram: 2 0 0 1 0 0 2 0 0 3

Total # of neighbors = 8738
Ave neighs/atom = 7.2816667
Ave special neighs/atom = 0.5
Neighbor list builds = 47
Dangerous builds = 2
unfix 2
unfix 4
unfix 5
fix		5 solute rigid/small molecule
  create bodies CPU = 0.000 seconds
  150 rigid bodies with 450 atoms
  1.3043524 = max distance from body owner to body atom
fix		4 all enforce2d
run		500
Per MPI rank memory allocation (min/avg/max) = 8.669 | 8.670 | 8.672 Mbytes
Step Temp E_pair E_mol TotEng Press 
     500    3205.9327   -1.9071064   0.13696791    2600.3786    2431.3634 
     550    5968.9282   -1.9027246   0.13699069    4843.0143    4523.2778 
     600    6587.7839   -1.8993126   0.13700805    5345.3223    4992.1907 
     650    7951.0105   -1.9014279   0.13702742    6451.8058    6024.5982 
     700    8725.3458   -1.9124009   0.13704546    7080.2969    6611.0441 
     750    10067.735   -1.8975356   0.13706054    8169.8842    7628.3596 
     800    11769.169   -1.8883706   0.13708049    9550.8907    8917.3242 
     850    12806.798   -1.9062794    0.1370969    10393.082    9702.9299 
     900    14156.088    -1.911909   0.13711252     11488.25    10725.097 
     950    15065.678   -1.9108629   0.13713264    12226.535    11414.358 
    1000    15798.254    -1.915196    0.1371475    12821.138    11969.107 
Loop time of 0.061667 on 8 procs for 500 steps with 1200 atoms

Performance: 3502682.992 tau/day, 8108.062 timesteps/s
99.7% CPU use with 8 MPI tasks x no OpenMP threads

MPI task timing breakdown:
Section |  min time  |  avg time  |  max time  |%varavg| %total
---------------------------------------------------------------
Pair    | 0.0081258  | 0.012713   | 0.015315   |   2.0 | 20.62
Bond    | 0.0004532  | 0.00056693 | 0.00075741 |   0.0 |  0.92
Neigh   | 0.0044375  | 0.0046022  | 0.004752   |   0.2 |  7.46
Comm    | 0.012903   | 0.015802   | 0.019882   |   1.7 | 25.63
Output  | 0.00045028 | 0.00047529 | 0.00056069 |   0.0 |  0.77
Modify  | 0.02342    | 0.024303   | 0.025363   |   0.5 | 39.41
Other   |            | 0.003204   |            |       |  5.20

Nlocal:        150.000 ave         156 max         144 min
Histogram: 2 0 0 1 0 2 1 0 1 1
Nghost:        171.250 ave         180 max         163 min
Histogram: 3 0 0 0 0 1 1 1 1 1
Neighs:        1090.00 ave        1134 max        1001 min
Histogram: 1 0 0 0 1 1 0 1 2 2

Total # of neighbors = 8720
Ave neighs/atom = 7.2666667
Ave special neighs/atom = 0.5
Neighbor list builds = 40
Dangerous builds = 0
Total wall time: 0:00:00
