LAMMPS (29 Mar 2019)
  using 1 OpenMP thread(s) per MPI task
# 2d micelle simulation

dimension	2

neighbor	0.3 bin
neigh_modify	delay 5

atom_style	bond

# Soft potential push-off

read_data	data.micelle
  orthogonal box = (0 0 -0.1) to (35.8569 35.8569 0.1)
  4 by 2 by 1 MPI processor grid
  reading atoms ...
  1200 atoms
  scanning bonds ...
  1 = max bonds/atom
  reading bonds ...
  300 bonds
  2 = max # of 1-2 neighbors
  1 = max # of 1-3 neighbors
  1 = max # of 1-4 neighbors
  2 = max # of special neighbors
  special bonds CPU = 0.00125504 secs
  read_data CPU = 0.00550914 secs
special_bonds	fene
  2 = max # of 1-2 neighbors
  2 = max # of special neighbors
  special bonds CPU = 0.000169992 secs

pair_style	soft 1.12246
pair_coeff	* * 0.0 1.12246

bond_style 	harmonic
bond_coeff	1 50.0 0.75

velocity	all create 0.45 2349852

variable	prefactor equal ramp(1.0,20.0)

fix		1 all nve
fix		2 all temp/rescale 100 0.45 0.45 0.02 1.0
fix		3 all adapt 1 pair soft a * * v_prefactor
fix		4 all enforce2d

thermo		50
run		1000
Neighbor list info ...
  update every 1 steps, delay 5 steps, check yes
  max neighbors/atom: 2000, page size: 100000
  master list distance cutoff = 1.42246
  ghost atom cutoff = 1.42246
  binsize = 0.71123, bins = 51 51 1
  1 neighbor lists, perpetual/occasional/extra = 1 0 0
  (1) pair soft, perpetual
      attributes: half, newton on
      pair build: half/bin/newton
      stencil: half/bin/2d/newton
      bin: standard
Per MPI rank memory allocation (min/avg/max) = 3.75 | 3.843 | 4.122 Mbytes
Step Temp E_pair E_mol TotEng Press 
       0         0.45   0.40003481 2.2200223e-06   0.84966203   0.78952518 
      50   0.47411013   0.67721272  0.057404514    1.2083323    1.3375852 
     100         0.45   0.73046745  0.054836584     1.234929    2.3196516 
     150   0.67521742   0.72402001  0.043490075    1.4421648    2.8744416 
     200         0.45   0.78481891  0.076931503    1.3113754    3.0412388 
     250   0.66479018   0.69790602  0.081075564    1.4432178    3.6917024 
     300         0.45   0.76820218  0.066727591    1.2845548    3.7861054 
     350   0.67619136     0.625715  0.072722727    1.3740656    4.2861621 
     400         0.45   0.68527759  0.090724527    1.2256271    4.4725214 
     450   0.56702844   0.64402767  0.080555563    1.2911391    4.7402211 
     500         0.45   0.64883009  0.078376672    1.1768318    4.7919294 
     550     0.564664   0.58260368  0.080779475    1.2275766    4.9855705 
     600         0.45   0.58193041  0.088386617     1.119942     5.131481 
     650   0.52110993    0.5415273  0.097683746    1.1598867    5.2500294 
     700         0.45   0.50856787  0.088471208    1.0466641    5.2550165 
     750   0.51510855   0.47441291  0.089429375    1.0785216     5.375763 
     800         0.45   0.49926696  0.085958476    1.0348504    5.4665914 
     850   0.50688494   0.46614429  0.088962292    1.0615691     5.556932 
     900         0.45   0.47785593   0.10150857    1.0289895    5.7765975 
     950   0.49590559   0.46050477  0.096404887     1.052402    5.8649245 
    1000         0.45   0.47691182   0.08808163    1.0146185    6.0177568 
Loop time of 0.0675449 on 8 procs for 1000 steps with 1200 atoms

Performance: 6395744.951 tau/day, 14804.965 timesteps/s
98.4% CPU use with 8 MPI tasks x 1 OpenMP threads

MPI task timing breakdown:
Section |  min time  |  avg time  |  max time  |%varavg| %total
---------------------------------------------------------------
Pair    | 0.02201    | 0.024523   | 0.026306   |   0.8 | 36.31
Bond    | 0.0015879  | 0.0017591  | 0.0020194  |   0.4 |  2.60
Neigh   | 0.0057232  | 0.0060089  | 0.0061688  |   0.2 |  8.90
Comm    | 0.017243   | 0.019518   | 0.021841   |   1.0 | 28.90
Output  | 0.00076175 | 0.00078666 | 0.00087452 |   0.0 |  1.16
Modify  | 0.0081706  | 0.0088195  | 0.0091841  |   0.3 | 13.06
Other   |            | 0.00613    |            |       |  9.08

Nlocal:    150 ave 154 max 144 min
Histogram: 1 0 0 0 1 0 2 2 1 1
Nghost:    79 ave 84 max 75 min
Histogram: 1 1 1 0 3 0 0 0 1 1
Neighs:    392 ave 417 max 363 min
Histogram: 1 0 1 0 1 1 2 1 0 1

Total # of neighbors = 3136
Ave neighs/atom = 2.61333
Ave special neighs/atom = 0.5
Neighbor list builds = 92
Dangerous builds = 0

unfix		3

# Main run

pair_style	lj/cut 2.5

# solvent/head - full-size and long-range

pair_coeff	1 1 1.0 1.0 2.5
pair_coeff	2 2 1.0 1.0 2.5
pair_coeff	1 2 1.0 1.0 2.5

# tail/tail - size-averaged and long-range

pair_coeff	3 3 1.0 0.75 2.5
pair_coeff	4 4 1.0 0.50 2.5
pair_coeff	3 4 1.0 0.67 2.5

# solvent/tail - full-size and repulsive

pair_coeff	1 3 1.0 1.0 1.12246
pair_coeff	1 4 1.0 1.0 1.12246

# head/tail - size-averaged and repulsive

pair_coeff	2 3 1.0 0.88 1.12246
pair_coeff	2 4 1.0 0.75 1.12246

thermo		50

#dump		1 all atom 2000 dump.micelle

#dump		2 all image 2000 image.*.jpg type type zoom 1.6
#dump_modify	2 pad 5 adiam 1 0.5 adiam 2 1.5 adiam 3 1.0 adiam 4 0.75

#dump		3 all movie 2000 movie.mpg type type zoom 1.6
#dump_modify	3 pad 5 adiam 1 0.5 adiam 2 1.5 adiam 3 1.0 adiam 4 0.75

reset_timestep	0
run		1000
Neighbor list info ...
  update every 1 steps, delay 5 steps, check yes
  max neighbors/atom: 2000, page size: 100000
  master list distance cutoff = 2.8
  ghost atom cutoff = 2.8
  binsize = 1.4, bins = 26 26 1
  1 neighbor lists, perpetual/occasional/extra = 1 0 0
  (1) pair lj/cut, perpetual
      attributes: half, newton on
      pair build: half/bin/newton
      stencil: half/bin/2d/newton
      bin: standard
Per MPI rank memory allocation (min/avg/max) = 3.997 | 4.028 | 4.121 Mbytes
Step Temp E_pair E_mol TotEng Press 
       0         0.45   -1.7056163   0.08808163   -1.1679097    3.9431686 
      50   0.59734982   -1.8103783  0.076066922   -1.1374593    3.2770557 
     100         0.45   -1.8347112  0.093132329   -1.2919539     3.024661 
     150   0.51924311   -1.8943977  0.076004124   -1.2995832    2.5570373 
     200         0.45   -1.8918672  0.082422107   -1.3598201    2.5629655 
     250   0.50281134    -1.920406  0.074011331   -1.3440023    2.3518682 
     300         0.45   -1.9351047  0.075337265   -1.4101424    2.3249947 
     350   0.47650026   -1.9313687  0.072115117   -1.3831504    2.1987532 
     400         0.45   -1.9554318  0.081603939   -1.4242028    2.0787066 
     450   0.47220237   -1.9468502  0.065625625   -1.4094157    2.0984288 
     500   0.46846731   -1.9444333  0.076696284   -1.3996601    2.0528682 
     550   0.47683128    -1.958676  0.070589721   -1.4116523    2.0856023 
     600   0.46851245   -1.9338267  0.070605471   -1.3950992    2.2640499 
     650   0.46874142   -1.9462493  0.069134686   -1.4087638    2.1070263 
     700   0.46437386   -1.9309953  0.071977514   -1.3950309    2.2256921 
     750   0.47326258   -1.9484258   0.07543582   -1.4001218    2.0880234 
     800         0.45   -1.9646004  0.064159574   -1.4508158    2.0612696 
     850   0.46748278   -1.9705588   0.06038515   -1.4430805    1.9472895 
     900   0.46909433   -1.9537221  0.062470302   -1.4225484    2.0223033 
     950   0.45631549   -1.9387743  0.067535886   -1.4153032    2.0638551 
    1000         0.45   -1.9727643  0.058608358   -1.4645309     1.998253 
Loop time of 0.0766529 on 8 procs for 1000 steps with 1200 atoms

Performance: 5635795.742 tau/day, 13045.823 timesteps/s
99.1% CPU use with 8 MPI tasks x 1 OpenMP threads

MPI task timing breakdown:
Section |  min time  |  avg time  |  max time  |%varavg| %total
---------------------------------------------------------------
Pair    | 0.021471   | 0.029625   | 0.036248   |   3.2 | 38.65
Bond    | 0.001071   | 0.0015466  | 0.002008   |   0.7 |  2.02
Neigh   | 0.0086367  | 0.0087979  | 0.0090833  |   0.2 | 11.48
Comm    | 0.018282   | 0.025345   | 0.034571   |   3.7 | 33.06
Output  | 0.0007925  | 0.00082138 | 0.00090146 |   0.0 |  1.07
Modify  | 0.002856   | 0.0040577  | 0.0048101  |   1.2 |  5.29
Other   |            | 0.006459   |            |       |  8.43

Nlocal:    150 ave 155 max 145 min
Histogram: 1 0 0 1 1 1 3 0 0 1
Nghost:    172.125 ave 180 max 165 min
Histogram: 2 1 0 1 1 0 0 0 0 3
Neighs:    1073.25 ave 1107 max 1014 min
Histogram: 1 0 1 0 0 2 0 0 0 4

Total # of neighbors = 8586
Ave neighs/atom = 7.155
Ave special neighs/atom = 0.5
Neighbor list builds = 86
Dangerous builds = 0
Total wall time: 0:00:00
