LAMMPS (6 Jul 2017)
  using 1 OpenMP thread(s) per MPI task
# 2d micelle simulation

dimension	2

neighbor	0.3 bin
neigh_modify	delay 5

atom_style	bond

# Soft potential push-off

read_data	data.micelle
  orthogonal box = (0 0 -0.1) to (35.8569 35.8569 0.1)
  2 by 2 by 1 MPI processor grid
  reading atoms ...
  1200 atoms
  scanning bonds ...
  1 = max bonds/atom
  reading bonds ...
  300 bonds
  2 = max # of 1-2 neighbors
  1 = max # of 1-3 neighbors
  1 = max # of 1-4 neighbors
  2 = max # of special neighbors
special_bonds	fene
  2 = max # of 1-2 neighbors
  2 = max # of special neighbors

pair_style	soft 1.12246
pair_coeff	* * 0.0 1.12246

bond_style 	harmonic
bond_coeff	1 50.0 0.75

velocity	all create 0.45 2349852

variable	prefactor equal ramp(1.0,20.0)

fix		1 all nve
fix		2 all temp/rescale 100 0.45 0.45 0.02 1.0
fix		3 all adapt 1 pair soft a * * v_prefactor
fix		4 all enforce2d

thermo		50
run		1000
Neighbor list info ...
  update every 1 steps, delay 5 steps, check yes
  max neighbors/atom: 2000, page size: 100000
  master list distance cutoff = 1.42246
  ghost atom cutoff = 1.42246
  binsize = 0.71123, bins = 51 51 1
  1 neighbor lists, perpetual/occasional/extra = 1 0 0
  (1) pair soft, perpetual
      attributes: half, newton on
      pair build: half/bin/newton
      stencil: half/bin/2d/newton
      bin: standard
Per MPI rank memory allocation (min/avg/max) = 3.758 | 3.85 | 4.126 Mbytes
Step Temp E_pair E_mol TotEng Press 
       0         0.45   0.40003481 2.2200223e-06   0.84966203   0.78952518 
      50   0.47411013   0.67721272  0.057404514    1.2083323    1.3375852 
     100         0.45   0.73046745  0.054836584     1.234929    2.3196516 
     150   0.67521742   0.72402001  0.043490075    1.4421648    2.8744416 
     200         0.45   0.78481891  0.076931503    1.3113754    3.0412388 
     250   0.66479018   0.69790602  0.081075564    1.4432178    3.6917024 
     300         0.45   0.76820218  0.066727591    1.2845548    3.7861054 
     350   0.67619136     0.625715  0.072722727    1.3740656    4.2861621 
     400         0.45   0.68527759  0.090724527    1.2256271    4.4725214 
     450   0.56702844   0.64402767  0.080555563    1.2911391    4.7402211 
     500         0.45   0.64883009  0.078376672    1.1768318    4.7919294 
     550     0.564664   0.58260368  0.080779475    1.2275766    4.9855705 
     600         0.45   0.58193041  0.088386617     1.119942     5.131481 
     650   0.52110993    0.5415273  0.097683746    1.1598867    5.2500294 
     700         0.45   0.50856787  0.088471208    1.0466641    5.2550165 
     750   0.51510855   0.47441291  0.089429375    1.0785216     5.375763 
     800         0.45   0.49926696  0.085958476    1.0348504    5.4665914 
     850   0.50688494   0.46614429  0.088962292    1.0615691     5.556932 
     900         0.45   0.47785593   0.10150857    1.0289895    5.7765975 
     950   0.49590559   0.46050477  0.096404887     1.052402    5.8649245 
    1000         0.45   0.47691182   0.08808163    1.0146185    6.0177568 
Loop time of 0.0901614 on 4 procs for 1000 steps with 1200 atoms

Performance: 4791408.305 tau/day, 11091.223 timesteps/s
97.6% CPU use with 4 MPI tasks x 1 OpenMP threads

MPI task timing breakdown:
Section |  min time  |  avg time  |  max time  |%varavg| %total
---------------------------------------------------------------
Pair    | 0.041603   | 0.043372   | 0.044903   |   0.6 | 48.10
Bond    | 0.0023265  | 0.0026423  | 0.0028977  |   0.4 |  2.93
Neigh   | 0.0078998  | 0.0080282  | 0.0081499  |   0.1 |  8.90
Comm    | 0.017511   | 0.02023    | 0.023234   |   1.6 | 22.44
Output  | 0.00050688 | 0.00053883 | 0.00061703 |   0.0 |  0.60
Modify  | 0.0080719  | 0.0098363  | 0.011222   |   1.2 | 10.91
Other   |            | 0.005514   |            |       |  6.12

Nlocal:    300 ave 305 max 292 min
Histogram: 1 0 0 0 0 0 1 0 1 1
Nghost:    100.25 ave 108 max 93 min
Histogram: 1 0 1 0 0 0 1 0 0 1
Neighs:    784 ave 815 max 739 min
Histogram: 1 0 0 0 0 0 1 1 0 1

Total # of neighbors = 3136
Ave neighs/atom = 2.61333
Ave special neighs/atom = 0.5
Neighbor list builds = 92
Dangerous builds = 0

unfix		3

# Main run

pair_style	lj/cut 2.5

# solvent/head - full-size and long-range

pair_coeff	1 1 1.0 1.0 2.5
pair_coeff	2 2 1.0 1.0 2.5
pair_coeff	1 2 1.0 1.0 2.5

# tail/tail - size-averaged and long-range

pair_coeff	3 3 1.0 0.75 2.5
pair_coeff	4 4 1.0 0.50 2.5
pair_coeff	3 4 1.0 0.67 2.5

# solvent/tail - full-size and repulsive

pair_coeff	1 3 1.0 1.0 1.12246
pair_coeff	1 4 1.0 1.0 1.12246

# head/tail - size-averaged and repulsive

pair_coeff	2 3 1.0 0.88 1.12246
pair_coeff	2 4 1.0 0.75 1.12246

thermo		1000

#dump		1 all atom 2000 dump.micelle

#dump		2 all image 2000 image.*.jpg type type zoom 1.6
#dump_modify	2 pad 5 adiam 1 0.5 adiam 2 1.5 adiam 3 1.0 adiam 4 0.75

#dump		3 all movie 2000 movie.mpg type type zoom 1.6
#dump_modify	3 pad 5 adiam 1 0.5 adiam 2 1.5 adiam 3 1.0 adiam 4 0.75

reset_timestep	0
group solvent   molecule 0
750 atoms in group solvent
group solute    subtract all solvent
450 atoms in group solute
unfix 1
unfix 2
unfix 4
fix		1 solvent nve
fix		2 solvent temp/rescale 100 0.45 0.45 0.02 1.0
fix		5 solute rigid molecule langevin 0.45 0.45 0.5 112211
150 rigid bodies with 450 atoms
fix		4 all enforce2d
run		20000
Neighbor list info ...
  update every 1 steps, delay 5 steps, check yes
  max neighbors/atom: 2000, page size: 100000
  master list distance cutoff = 2.8
  ghost atom cutoff = 2.8
  binsize = 1.4, bins = 26 26 1
  1 neighbor lists, perpetual/occasional/extra = 1 0 0
  (1) pair lj/cut, perpetual
      attributes: half, newton on
      pair build: half/bin/newton
      stencil: half/bin/2d/newton
      bin: standard
Per MPI rank memory allocation (min/avg/max) = 5.251 | 5.282 | 5.374 Mbytes
Step Temp E_pair E_mol TotEng Press 
       0   0.44725304   -1.7056163   0.08808163   -1.2545143    1.3139355 
    1000   0.45788573   -1.9287824  0.088103525   -1.4690282   0.92875088 
    2000   0.43537381   -1.9232846  0.088527126   -1.4813791    5.5305041 
    3000    0.4538641   -1.9532633  0.091080234   -1.4937967    2.2675504 
    4000   0.45173209   -1.9720673  0.088160134   -1.5172513   -1.5361276 
    5000   0.45281693   -2.0077047  0.088095078   -1.5520732    1.5227892 
    6000    0.4706616   -1.9996652  0.088324841     -1.52932     1.597385 
    7000   0.44090357   -1.9636813  0.089528896   -1.5162856    3.8349091 
    8000   0.44675492   -1.9909894  0.088604399   -1.5397689   -5.8445216 
    9000   0.45111114   -1.9967464  0.088493222   -1.5421013    4.8675779 
   10000    0.4668115   -1.9949655  0.087759613   -1.5283106    1.0649429 
   11000   0.46126257   -1.9788536  0.088287277   -1.5161749   -1.1449641 
   12000   0.44536651   -2.0103421  0.089370886    -1.559482  -0.58481538 
   13000   0.44829145   -2.0355959  0.087918206   -1.5838145    3.0978891 
   14000   0.44868117   -2.0194615  0.088560215   -1.5667217   -1.1987297 
   15000    0.4725446   -2.0431659  0.088944762   -1.5706725   -2.5856978 
   16000    0.4291628   -2.0215451  0.087691606   -1.5855164    0.6867491 
   17000   0.43612881    -2.033514  0.088079111   -1.5914436   -5.4784194 
   18000   0.44426081   -2.0120024  0.088381071   -1.5630297  -0.81247286 
   19000   0.45049976   -2.0350498  0.088062694   -1.5813315    2.0202134 
   20000   0.44956788   -2.0380079  0.087952521   -1.5851561   -0.3104685 
Loop time of 3.44131 on 4 procs for 20000 steps with 1200 atoms

Performance: 2510669.338 tau/day, 5811.735 timesteps/s
98.6% CPU use with 4 MPI tasks x 1 OpenMP threads

MPI task timing breakdown:
Section |  min time  |  avg time  |  max time  |%varavg| %total
---------------------------------------------------------------
Pair    | 0.7989     | 0.8176     | 0.83468    |   1.4 | 23.76
Bond    | 0.041461   | 0.044945   | 0.049245   |   1.6 |  1.31
Neigh   | 0.2064     | 0.20765    | 0.20912    |   0.2 |  6.03
Comm    | 0.36408    | 0.38652    | 0.42051    |   3.4 | 11.23
Output  | 0.00058031 | 0.00062418 | 0.00073957 |   0.0 |  0.02
Modify  | 1.8049     | 1.8391     | 1.8711     |   1.8 | 53.44
Other   |            | 0.1449     |            |       |  4.21

Nlocal:    300 ave 313 max 288 min
Histogram: 1 0 0 1 0 1 0 0 0 1
Nghost:    218.25 ave 222 max 212 min
Histogram: 1 0 0 0 0 1 0 0 0 2
Neighs:    2196.5 ave 2277 max 2137 min
Histogram: 2 0 0 0 0 0 1 0 0 1

Total # of neighbors = 8786
Ave neighs/atom = 7.32167
Ave special neighs/atom = 0.5
Neighbor list builds = 1567
Dangerous builds = 0
unfix 5
unfix 4
fix		5 solute rigid/small molecule langevin 0.45 0.45 0.5 112211
150 rigid bodies with 450 atoms
  36.5274 = max distance from body owner to body atom
fix		4 all enforce2d
run		20000
Per MPI rank memory allocation (min/avg/max) = 8.565 | 8.598 | 8.692 Mbytes
Step Temp E_pair E_mol TotEng Press 
   20000   0.44956788   -2.0380079  0.087952521   -1.5851561   0.74859206 
   21000   0.44694833   -2.0181977  0.088603343   -1.5668213   -1.0153742 
   22000   0.45378541   -2.0467384  0.089299187   -1.5891168    2.7119185 
   23000   0.45021581   -2.0340723  0.089046008   -1.5796012    3.4471952 
   24000   0.45067921   -2.0675186  0.088539155   -1.6131781    0.5977613 
   25000   0.44897682    -2.067596  0.088858444   -1.6143181  -0.29483414 
   26000   0.44864834   -2.0643015  0.088849849   -1.6112987    1.6964304 
   27000   0.44538197   -2.0640461  0.089448471   -1.6130959   -1.9921335 
   28000   0.44841285   -2.0647059  0.087938778   -1.6128054    1.8819856 
   29000   0.44658423   -2.0695478  0.088359759   -1.6187105     4.141436 
   30000   0.44223921   -2.0638042  0.088815819   -1.6160376     4.078096 
   31000   0.45349078   -2.0660962  0.089069176   -1.6089437  -0.43494401 
   32000   0.43348201   -2.0609435  0.087727223   -1.6213734 -0.012721971 
   33000   0.42746424   -2.0634631  0.088845909   -1.6276587 -0.062985805 
   34000   0.45139496   -2.0737379   0.08806628   -1.6192894    -2.742751 
   35000   0.46538984   -2.0549854  0.089690183   -1.5875538   -4.1964938 
   36000   0.44525771   -2.0807626  0.088717862   -1.6306439   -1.2572651 
   37000   0.46736646   -2.0808809  0.087844479   -1.6136907   -2.0995258 
   38000   0.44673675   -2.0683877  0.089497484   -1.6162889    4.7689242 
   39000   0.43758657   -2.0645701  0.089479192   -1.6199165    5.1201634 
   40000   0.44719426   -2.0643189  0.088023886   -1.6133223   -1.9360009 
Loop time of 2.53232 on 4 procs for 20000 steps with 1200 atoms

Performance: 3411897.466 tau/day, 7897.911 timesteps/s
98.8% CPU use with 4 MPI tasks x 1 OpenMP threads

MPI task timing breakdown:
Section |  min time  |  avg time  |  max time  |%varavg| %total
---------------------------------------------------------------
Pair    | 0.83222    | 0.84168    | 0.85509    |   0.9 | 33.24
Bond    | 0.037361   | 0.044264   | 0.050122   |   2.7 |  1.75
Neigh   | 0.20601    | 0.20702    | 0.20771    |   0.1 |  8.18
Comm    | 0.33064    | 0.34686    | 0.36578    |   2.2 | 13.70
Output  | 0.00051761 | 0.00055832 | 0.00065589 |   0.0 |  0.02
Modify  | 0.99306    | 1.0024     | 1.0088     |   0.6 | 39.58
Other   |            | 0.08955    |            |       |  3.54

Nlocal:    300 ave 310 max 289 min
Histogram: 1 0 0 0 1 0 1 0 0 1
Nghost:    212.5 ave 221 max 204 min
Histogram: 1 1 0 0 0 0 0 0 1 1
Neighs:    2310.5 ave 2366 max 2255 min
Histogram: 2 0 0 0 0 0 0 0 0 2

Total # of neighbors = 9242
Ave neighs/atom = 7.70167
Ave special neighs/atom = 0.5
Neighbor list builds = 1565
Dangerous builds = 0
Total wall time: 0:00:06
