LAMMPS (28 Feb 2019)
  using 1 OpenMP thread(s) per MPI task
# 2d micelle simulation

dimension	2

neighbor	0.3 bin
neigh_modify	delay 5

atom_style	bond

# Soft potential push-off

read_data	data.micelle
  orthogonal box = (0 0 -0.1) to (35.8569 35.8569 0.1)
  4 by 2 by 1 MPI processor grid
  reading atoms ...
  1200 atoms
  scanning bonds ...
  1 = max bonds/atom
  reading bonds ...
  300 bonds
  2 = max # of 1-2 neighbors
  1 = max # of 1-3 neighbors
  1 = max # of 1-4 neighbors
  2 = max # of special neighbors
  special bonds CPU = 0.00137997 secs
  read_data CPU = 0.00572658 secs
special_bonds	fene
  2 = max # of 1-2 neighbors
  2 = max # of special neighbors
  special bonds CPU = 0.000248909 secs

pair_style	soft 1.12246
pair_coeff	* * 0.0 1.12246

bond_style 	harmonic
bond_coeff	1 50.0 0.75

velocity	all create 0.45 2349852

variable	prefactor equal ramp(1.0,20.0)

fix		1 all nve
fix		2 all temp/rescale 100 0.45 0.45 0.02 1.0
fix		3 all adapt 1 pair soft a * * v_prefactor
fix		4 all enforce2d

thermo		50
run		1000
Neighbor list info ...
  update every 1 steps, delay 5 steps, check yes
  max neighbors/atom: 2000, page size: 100000
  master list distance cutoff = 1.42246
  ghost atom cutoff = 1.42246
  binsize = 0.71123, bins = 51 51 1
  1 neighbor lists, perpetual/occasional/extra = 1 0 0
  (1) pair soft, perpetual
      attributes: half, newton on
      pair build: half/bin/newton
      stencil: half/bin/2d/newton
      bin: standard
Per MPI rank memory allocation (min/avg/max) = 3.75 | 3.843 | 4.122 Mbytes
Step Temp E_pair E_mol TotEng Press 
       0         0.45   0.40003481 2.2200223e-06   0.84966203   0.78952518 
      50   0.47411013   0.67721272  0.057404514    1.2083323    1.3375852 
     100         0.45   0.73046745  0.054836584     1.234929    2.3196516 
     150   0.67521742   0.72402001  0.043490075    1.4421648    2.8744416 
     200         0.45   0.78481891  0.076931503    1.3113754    3.0412388 
     250   0.66479018   0.69790602  0.081075564    1.4432178    3.6917024 
     300         0.45   0.76820218  0.066727591    1.2845548    3.7861054 
     350   0.67619136     0.625715  0.072722727    1.3740656    4.2861621 
     400         0.45   0.68527759  0.090724527    1.2256271    4.4725214 
     450   0.56702844   0.64402767  0.080555563    1.2911391    4.7402211 
     500         0.45   0.64883009  0.078376672    1.1768318    4.7919294 
     550     0.564664   0.58260368  0.080779475    1.2275766    4.9855705 
     600         0.45   0.58193041  0.088386617     1.119942     5.131481 
     650   0.52110993    0.5415273  0.097683746    1.1598867    5.2500294 
     700         0.45   0.50856787  0.088471208    1.0466641    5.2550165 
     750   0.51510855   0.47441291  0.089429375    1.0785216     5.375763 
     800         0.45   0.49926696  0.085958476    1.0348504    5.4665914 
     850   0.50688494   0.46614429  0.088962292    1.0615691     5.556932 
     900         0.45   0.47785593   0.10150857    1.0289895    5.7765975 
     950   0.49590559   0.46050477  0.096404887     1.052402    5.8649245 
    1000         0.45   0.47691182   0.08808163    1.0146185    6.0177568 
Loop time of 0.0687701 on 8 procs for 1000 steps with 1200 atoms

Performance: 6281801.547 tau/day, 14541.207 timesteps/s
98.4% CPU use with 8 MPI tasks x 1 OpenMP threads

MPI task timing breakdown:
Section |  min time  |  avg time  |  max time  |%varavg| %total
---------------------------------------------------------------
Pair    | 0.018099   | 0.023384   | 0.026016   |   1.8 | 34.00
Bond    | 0.0011625  | 0.0017023  | 0.0020056  |   0.7 |  2.48
Neigh   | 0.0057957  | 0.0059767  | 0.0061724  |   0.1 |  8.69
Comm    | 0.018302   | 0.021986   | 0.028911   |   2.5 | 31.97
Output  | 0.00078511 | 0.0008246  | 0.00096035 |   0.0 |  1.20
Modify  | 0.0061412  | 0.0084276  | 0.0094664  |   1.4 | 12.25
Other   |            | 0.006469   |            |       |  9.41

Nlocal:    150 ave 154 max 144 min
Histogram: 1 0 0 0 1 0 2 2 1 1
Nghost:    79 ave 84 max 75 min
Histogram: 1 1 1 0 3 0 0 0 1 1
Neighs:    392 ave 417 max 363 min
Histogram: 1 0 1 0 1 1 2 1 0 1

Total # of neighbors = 3136
Ave neighs/atom = 2.61333
Ave special neighs/atom = 0.5
Neighbor list builds = 92
Dangerous builds = 0

unfix		3

# Main run

pair_style	lj/cut 2.5

# solvent/head - full-size and long-range

pair_coeff	1 1 1.0 1.0 2.5
pair_coeff	2 2 1.0 1.0 2.5
pair_coeff	1 2 1.0 1.0 2.5

# tail/tail - size-averaged and long-range

pair_coeff	3 3 1.0 0.75 2.5
pair_coeff	4 4 1.0 0.50 2.5
pair_coeff	3 4 1.0 0.67 2.5

# solvent/tail - full-size and repulsive

pair_coeff	1 3 1.0 1.0 1.12246
pair_coeff	1 4 1.0 1.0 1.12246

# head/tail - size-averaged and repulsive

pair_coeff	2 3 1.0 0.88 1.12246
pair_coeff	2 4 1.0 0.75 1.12246

thermo		1000

#dump		1 all atom 2000 dump.micelle

#dump		2 all image 2000 image.*.jpg type type zoom 1.6
#dump_modify	2 pad 5 adiam 1 0.5 adiam 2 1.5 adiam 3 1.0 adiam 4 0.75

#dump		3 all movie 2000 movie.mpg type type zoom 1.6
#dump_modify	3 pad 5 adiam 1 0.5 adiam 2 1.5 adiam 3 1.0 adiam 4 0.75

reset_timestep	0
group solvent   molecule 0
750 atoms in group solvent
group solute    subtract all solvent
450 atoms in group solute
unfix 1
unfix 2
unfix 4
fix		1 solvent nve
fix		2 solvent temp/rescale 100 0.45 0.45 0.02 1.0
fix		5 solute rigid molecule langevin 0.45 0.45 0.5 112211
150 rigid bodies with 450 atoms
fix		4 all enforce2d
run		20000
Neighbor list info ...
  update every 1 steps, delay 5 steps, check yes
  max neighbors/atom: 2000, page size: 100000
  master list distance cutoff = 2.8
  ghost atom cutoff = 2.8
  binsize = 1.4, bins = 26 26 1
  1 neighbor lists, perpetual/occasional/extra = 1 0 0
  (1) pair lj/cut, perpetual
      attributes: half, newton on
      pair build: half/bin/newton
      stencil: half/bin/2d/newton
      bin: standard
Per MPI rank memory allocation (min/avg/max) = 5.247 | 5.278 | 5.371 Mbytes
Step Temp E_pair E_mol TotEng Press 
       0   0.44603578   -1.7056163   0.08808163   -1.2555023    3.4039736 
    1000   0.46008165   -1.9040835   0.08808163    -1.442569   0.93225912 
    2000   0.44836038    -1.935428   0.08808163   -1.4834272    3.8196891 
    3000   0.45865212   -1.9575108   0.08808163   -1.4971566    2.2441213 
    4000    0.4589665   -1.9793886   0.08808163   -1.5187792   -0.9995198 
    5000   0.43650545   -1.9606262   0.08808163   -1.5182476    2.5646883 
    6000   0.44219099   -1.9832155   0.08808163   -1.5362222    1.9164374 
    7000   0.45067571   -1.9989742   0.08808163   -1.5450941    2.7372233 
    8000   0.47078984   -2.0015568   0.08808163   -1.5313508   -5.2191592 
    9000   0.44405482   -1.9856459   0.08808163   -1.5371397    6.2995134 
   10000   0.44982817   -2.0036222   0.08808163   -1.5504301   0.36361065 
   11000   0.45808539   -2.0037236   0.08808163   -1.5438293   -2.4546907 
   12000   0.44143772    -2.010978   0.08808163   -1.5645961    -1.695532 
   13000     0.452668    -2.025737   0.08808163   -1.5702398    3.8298147 
   14000   0.44971767   -2.0225031   0.08808163   -1.5694006   -2.7346183 
   15000   0.43641626   -2.0056832   0.08808163    -1.563377   -3.1291686 
   16000   0.44728972   -2.0409422   0.08808163   -1.5898104 -0.093386319 
   17000   0.43637857   -2.0368963   0.08808163   -1.5946207   -5.7814727 
   18000   0.43380565   -2.0264762   0.08808163    -1.586289   0.97839647 
   19000   0.46190346   -2.0490425   0.08808163   -1.5860493    1.5571353 
   20000   0.44429883   -2.0311506   0.08808163   -1.5824464  -0.96543326 
Loop time of 3.11635 on 8 procs for 20000 steps with 1200 atoms

Performance: 2772475.989 tau/day, 6417.768 timesteps/s
98.2% CPU use with 8 MPI tasks x 1 OpenMP threads

MPI task timing breakdown:
Section |  min time  |  avg time  |  max time  |%varavg| %total
---------------------------------------------------------------
Pair    | 0.43289    | 0.44984    | 0.47198    |   1.7 | 14.43
Bond    | 0.019929   | 0.024939   | 0.028218   |   2.0 |  0.80
Neigh   | 0.11372    | 0.11663    | 0.11893    |   0.5 |  3.74
Comm    | 0.3225     | 0.3602     | 0.40212    |   4.4 | 11.56
Output  | 0.00071263 | 0.00073785 | 0.00088954 |   0.0 |  0.02
Modify  | 1.9318     | 2.0054     | 2.0925     |   3.3 | 64.35
Other   |            | 0.1586     |            |       |  5.09

Nlocal:    150 ave 156 max 141 min
Histogram: 1 0 0 1 1 0 1 1 1 2
Nghost:    170.5 ave 176 max 166 min
Histogram: 2 0 0 1 2 1 0 0 0 2
Neighs:    1113.75 ave 1171 max 1045 min
Histogram: 1 0 0 1 1 1 2 0 1 1

Total # of neighbors = 8910
Ave neighs/atom = 7.425
Ave special neighs/atom = 0.5
Neighbor list builds = 1575
Dangerous builds = 0
unfix 5
unfix 4
fix		5 solute rigid/small molecule langevin 0.45 0.45 0.5 112211
  create bodies CPU = 9.15527e-05 secs
150 rigid bodies with 450 atoms
  0.916597 = max distance from body owner to body atom
fix		4 all enforce2d
run		20000
Per MPI rank memory allocation (min/avg/max) = 8.543 | 8.578 | 8.671 Mbytes
Step Temp E_pair E_mol TotEng Press 
   20000   0.44429883   -2.0311506   0.08808163   -1.5824464    2.3095495 
   21000   0.44448479   -2.0412973   0.08808163   -1.5924422  0.062700112 
   22000   0.45397894   -2.0289798   0.08808163   -1.5724186   -2.0970084 
   23000   0.44388589   -2.0328462   0.08808163   -1.5844772   0.80681681 
   24000   0.45107469   -2.0464331   0.08808163   -1.5922291   0.73137846 
   25000   0.45077562   -2.0443795   0.08808163   -1.5904183    0.9875011 
   26000   0.43885883   -2.0691365   0.08808163   -1.6248477    3.6375532 
   27000   0.43558298   -2.0708343   0.08808163   -1.6292045    1.3622453 
   28000   0.43151374   -2.0727557   0.08808163   -1.6344288     2.116454 
   29000   0.44325773   -2.0535228   0.08808163   -1.6056636    1.9949963 
   30000    0.4527648   -2.0555257   0.08808163     -1.59995    1.8987693 
   31000     0.445442   -2.0615595   0.08808163   -1.6119274   -2.4026731 
   32000   0.44842999    -2.078044   0.08808163   -1.6259867   -2.9398582 
   33000   0.46514907   -2.0545687   0.08808163   -1.5889411    8.5918386 
   34000   0.44450718   -2.0673767   0.08808163   -1.6185034    0.5365839 
   35000   0.44888546    -2.062913   0.08808163    -1.610486    1.3594395 
   36000   0.45103552   -2.0741982   0.08808163   -1.6200261     4.554397 
   37000   0.44403417   -2.0696008   0.08808163   -1.6211115   -2.0889296 
   38000   0.45653561   -2.0697732   0.08808163   -1.6111369    2.3323407 
   39000   0.42927477   -2.0481297   0.08808163     -1.61162   -2.5360752 
   40000   0.44321189   -2.0794015   0.08808163   -1.6315796   0.46917059 
Loop time of 1.79608 on 8 procs for 20000 steps with 1200 atoms

Performance: 4810488.379 tau/day, 11135.390 timesteps/s
98.8% CPU use with 8 MPI tasks x 1 OpenMP threads

MPI task timing breakdown:
Section |  min time  |  avg time  |  max time  |%varavg| %total
---------------------------------------------------------------
Pair    | 0.43038    | 0.45491    | 0.48599    |   2.6 | 25.33
Bond    | 0.015646   | 0.023642   | 0.030247   |   2.7 |  1.32
Neigh   | 0.11328    | 0.11658    | 0.11923    |   0.6 |  6.49
Comm    | 0.29878    | 0.32664    | 0.36363    |   3.7 | 18.19
Output  | 0.00072837 | 0.0007498  | 0.00086713 |   0.0 |  0.04
Modify  | 0.73229    | 0.75784    | 0.7974     |   2.5 | 42.19
Other   |            | 0.1157     |            |       |  6.44

Nlocal:    150 ave 165 max 142 min
Histogram: 2 1 1 1 1 1 0 0 0 1
Nghost:    172.125 ave 183 max 164 min
Histogram: 1 1 1 2 0 1 0 1 0 1
Neighs:    1140.5 ave 1243 max 1036 min
Histogram: 1 1 0 0 1 1 3 0 0 1

Total # of neighbors = 9124
Ave neighs/atom = 7.60333
Ave special neighs/atom = 0.5
Neighbor list builds = 1576
Dangerous builds = 0
Total wall time: 0:00:04
