LAMMPS (28 Feb 2019)
  using 1 OpenMP thread(s) per MPI task
# 2d micelle simulation

dimension	2

neighbor	0.3 bin
neigh_modify	delay 5

atom_style	bond

# Soft potential push-off

read_data	data.micelle
  orthogonal box = (0 0 -0.1) to (35.8569 35.8569 0.1)
  2 by 2 by 1 MPI processor grid
  reading atoms ...
  1200 atoms
  scanning bonds ...
  1 = max bonds/atom
  reading bonds ...
  300 bonds
  2 = max # of 1-2 neighbors
  1 = max # of 1-3 neighbors
  1 = max # of 1-4 neighbors
  2 = max # of special neighbors
  special bonds CPU = 0.000447512 secs
  read_data CPU = 0.00538802 secs
special_bonds	fene
  2 = max # of 1-2 neighbors
  2 = max # of special neighbors
  special bonds CPU = 0.000181437 secs

pair_style	soft 1.12246
pair_coeff	* * 0.0 1.12246

bond_style 	harmonic
bond_coeff	1 50.0 0.75

velocity	all create 0.45 2349852

variable	prefactor equal ramp(1.0,20.0)

fix		1 all nve
fix		2 all temp/rescale 100 0.45 0.45 0.02 1.0
fix		3 all adapt 1 pair soft a * * v_prefactor
fix		4 all enforce2d

thermo		50
run		1000
Neighbor list info ...
  update every 1 steps, delay 5 steps, check yes
  max neighbors/atom: 2000, page size: 100000
  master list distance cutoff = 1.42246
  ghost atom cutoff = 1.42246
  binsize = 0.71123, bins = 51 51 1
  1 neighbor lists, perpetual/occasional/extra = 1 0 0
  (1) pair soft, perpetual
      attributes: half, newton on
      pair build: half/bin/newton
      stencil: half/bin/2d/newton
      bin: standard
Per MPI rank memory allocation (min/avg/max) = 3.758 | 3.85 | 4.126 Mbytes
Step Temp E_pair E_mol TotEng Press 
       0         0.45   0.40003481 2.2200223e-06   0.84966203   0.78952518 
      50   0.47411013   0.67721272  0.057404514    1.2083323    1.3375852 
     100         0.45   0.73046745  0.054836584     1.234929    2.3196516 
     150   0.67521742   0.72402001  0.043490075    1.4421648    2.8744416 
     200         0.45   0.78481891  0.076931503    1.3113754    3.0412388 
     250   0.66479018   0.69790602  0.081075564    1.4432178    3.6917024 
     300         0.45   0.76820218  0.066727591    1.2845548    3.7861054 
     350   0.67619136     0.625715  0.072722727    1.3740656    4.2861621 
     400         0.45   0.68527759  0.090724527    1.2256271    4.4725214 
     450   0.56702844   0.64402767  0.080555563    1.2911391    4.7402211 
     500         0.45   0.64883009  0.078376672    1.1768318    4.7919294 
     550     0.564664   0.58260368  0.080779475    1.2275766    4.9855705 
     600         0.45   0.58193041  0.088386617     1.119942     5.131481 
     650   0.52110993    0.5415273  0.097683746    1.1598867    5.2500294 
     700         0.45   0.50856787  0.088471208    1.0466641    5.2550165 
     750   0.51510855   0.47441291  0.089429375    1.0785216     5.375763 
     800         0.45   0.49926696  0.085958476    1.0348504    5.4665914 
     850   0.50688494   0.46614429  0.088962292    1.0615691     5.556932 
     900         0.45   0.47785593   0.10150857    1.0289895    5.7765975 
     950   0.49590559   0.46050477  0.096404887     1.052402    5.8649245 
    1000         0.45   0.47691182   0.08808163    1.0146185    6.0177568 
Loop time of 0.0832912 on 4 procs for 1000 steps with 1200 atoms

Performance: 5186624.039 tau/day, 12006.074 timesteps/s
96.7% CPU use with 4 MPI tasks x 1 OpenMP threads

MPI task timing breakdown:
Section |  min time  |  avg time  |  max time  |%varavg| %total
---------------------------------------------------------------
Pair    | 0.035447   | 0.037824   | 0.040432   |   1.1 | 45.41
Bond    | 0.0021026  | 0.0023351  | 0.0025425  |   0.3 |  2.80
Neigh   | 0.0081904  | 0.0082366  | 0.0083003  |   0.0 |  9.89
Comm    | 0.01666    | 0.0202     | 0.022959   |   1.9 | 24.25
Output  | 0.00053692 | 0.00057673 | 0.00067496 |   0.0 |  0.69
Modify  | 0.0081418  | 0.0087954  | 0.010016   |   0.8 | 10.56
Other   |            | 0.005324   |            |       |  6.39

Nlocal:    300 ave 305 max 292 min
Histogram: 1 0 0 0 0 0 1 0 1 1
Nghost:    100.25 ave 108 max 93 min
Histogram: 1 0 1 0 0 0 1 0 0 1
Neighs:    784 ave 815 max 739 min
Histogram: 1 0 0 0 0 0 1 1 0 1

Total # of neighbors = 3136
Ave neighs/atom = 2.61333
Ave special neighs/atom = 0.5
Neighbor list builds = 92
Dangerous builds = 0

unfix		3

# Main run

pair_style	lj/cut 2.5

# solvent/head - full-size and long-range

pair_coeff	1 1 1.0 1.0 2.5
pair_coeff	2 2 1.0 1.0 2.5
pair_coeff	1 2 1.0 1.0 2.5

# tail/tail - size-averaged and long-range

pair_coeff	3 3 1.0 0.75 2.5
pair_coeff	4 4 1.0 0.50 2.5
pair_coeff	3 4 1.0 0.67 2.5

# solvent/tail - full-size and repulsive

pair_coeff	1 3 1.0 1.0 1.12246
pair_coeff	1 4 1.0 1.0 1.12246

# head/tail - size-averaged and repulsive

pair_coeff	2 3 1.0 0.88 1.12246
pair_coeff	2 4 1.0 0.75 1.12246

thermo		1000

#dump		1 all atom 2000 dump.micelle

#dump		2 all image 2000 image.*.jpg type type zoom 1.6
#dump_modify	2 pad 5 adiam 1 0.5 adiam 2 1.5 adiam 3 1.0 adiam 4 0.75

#dump		3 all movie 2000 movie.mpg type type zoom 1.6
#dump_modify	3 pad 5 adiam 1 0.5 adiam 2 1.5 adiam 3 1.0 adiam 4 0.75

reset_timestep	0
run		60000
Neighbor list info ...
  update every 1 steps, delay 5 steps, check yes
  max neighbors/atom: 2000, page size: 100000
  master list distance cutoff = 2.8
  ghost atom cutoff = 2.8
  binsize = 1.4, bins = 26 26 1
  1 neighbor lists, perpetual/occasional/extra = 1 0 0
  (1) pair lj/cut, perpetual
      attributes: half, newton on
      pair build: half/bin/newton
      stencil: half/bin/2d/newton
      bin: standard
Per MPI rank memory allocation (min/avg/max) = 4.001 | 4.032 | 4.124 Mbytes
Step Temp E_pair E_mol TotEng Press 
       0         0.45   -1.7056163   0.08808163   -1.1679097    3.9431686 
    1000         0.45   -1.9727651  0.058608085    -1.464532    1.9982447 
    2000   0.44445557     -1.98941  0.065449066   -1.4798758    1.6553441 
    3000     0.453443   -2.0122106  0.058231449    -1.500914    1.6213979 
    4000         0.45   -2.0274277  0.062540344   -1.5152623    1.4356835 
    5000   0.43568891   -2.0353332  0.055125308   -1.5448821    1.3687702 
    6000   0.44442174   -2.0267997  0.062392784   -1.5203555    1.3013583 
    7000   0.45578931   -2.0326265  0.060948624   -1.5162684    1.3407432 
    8000   0.45913431   -2.0416473  0.062844259   -1.5200513     1.362692 
    9000   0.44262714   -2.0425731  0.053230195   -1.5470847    1.2613785 
   10000   0.45358178    -2.062523  0.065661325   -1.5436579    1.0332797 
   11000   0.45461011   -2.0511818   0.05588696   -1.5410635    1.1218095 
   12000   0.46193575     -2.07662  0.059789683   -1.5552796   0.96873347 
   13000   0.45217114   -2.0504243  0.047238059   -1.5513919    1.2271681 
   14000   0.45642053   -2.0878476  0.060182359   -1.5716251     1.043918 
   15000   0.46241509   -2.0901363  0.057921926   -1.5701846   0.79453105 
   16000   0.46270909   -2.0969007  0.065763531   -1.5688137   0.81532946 
   17000   0.46237377   -2.0975948  0.066697857   -1.5689085   0.90532528 
   18000   0.44270244     -2.08126  0.070581459   -1.5683451    0.8196433 
   19000         0.45   -2.1046854  0.053673054   -1.6013873   0.62715985 
   20000   0.44827887   -2.0835425  0.061521705   -1.5741155   0.95791243 
   21000         0.45    -2.105683  0.056242705   -1.5998153    0.8873796 
   22000   0.45162441   -2.1090407  0.058022711   -1.5997699   0.76007021 
   23000   0.45482215   -2.1014061  0.053360485   -1.5936025   0.87309926 
   24000   0.44127784   -2.0875322  0.055503726   -1.5911183   0.92396652 
   25000         0.45   -2.0834495  0.059861369   -1.5739631   0.83284737 
   26000    0.4545631   -2.0846415  0.064583266    -1.565874   0.88172147 
   27000   0.46315033   -2.0857161  0.062639132   -1.5603126   0.90733535 
   28000   0.43892828   -2.0916341  0.063069751   -1.5900018   0.87999246 
   29000   0.45644918   -2.0976072  0.053382109   -1.5881562   0.89932508 
   30000   0.44297226   -2.0960988  0.059903981   -1.5935917   0.79349992 
   31000   0.45155406   -2.0990022  0.060254111   -1.5875704   0.77368392 
   32000   0.45927065   -2.1028049  0.064563232   -1.5793537   0.80217756 
   33000   0.44031137   -2.1151978  0.057265334    -1.617988   0.60595219 
   34000   0.44646538   -2.1065728  0.062163139   -1.5983163   0.75798864 
   35000   0.45217627   -2.1118614  0.056771601   -1.6032904   0.63838424 
   36000   0.45521396   -2.1239902  0.054112001   -1.6150436   0.58174249 
   37000   0.45460114   -2.1299089  0.066008264   -1.6096783   0.63340754 
   38000   0.43560586   -2.1095191  0.057675158   -1.6166011   0.64669217 
   39000   0.43608907   -2.1260817  0.059509167   -1.6308469   0.76390024 
   40000   0.44380149   -2.0944569  0.064400643   -1.5866246   0.78929513 
   41000    0.4664713   -2.1166459  0.052069107   -1.5984942    0.7120204 
   42000     0.458576   -2.1239128  0.067888388   -1.5978306   0.66585791 
   43000   0.46143612   -2.1173466  0.061247039    -1.595048   0.75031293 
   44000   0.45711975   -2.1298287  0.053009621   -1.6200802   0.61350572 
   45000   0.44525373   -2.1192861  0.055427224   -1.6189762   0.69806955 
   46000   0.45660283   -2.1191885  0.064707923   -1.5982583   0.65021164 
   47000   0.44944275   -2.1220456   0.05822726   -1.6147501   0.67323864 
   48000   0.45614016   -2.1224527  0.055242656     -1.61145   0.72780389 
   49000   0.44371507   -2.1251256  0.065718152   -1.6160622   0.64952717 
   50000         0.45   -2.1408426  0.054161917   -1.6370557   0.64005971 
   51000   0.45625388   -2.1278109  0.063012581   -1.6089247   0.58991193 
   52000    0.4679801   -2.1431024  0.063533724   -1.6119786    0.5439303 
   53000         0.45   -2.1188785  0.053495229   -1.6157583    0.7020307 
   54000   0.43763235   -2.1279533  0.061056267   -1.6296294   0.68689066 
   55000    0.4488075   -2.1097425  0.059931376   -1.6013777     0.690177 
   56000   0.46486159   -2.1161763  0.056266702   -1.5954354   0.63001934 
   57000   0.46078252   -2.1158585  0.054975304   -1.6004847   0.87174716 
   58000   0.45518257   -2.1221377   0.06494725   -1.6023872   0.53327487 
   59000   0.46006079   -2.1224044   0.06240731   -1.6003197   0.64721221 
   60000   0.46465014   -2.1333765  0.054038669   -1.6150749   0.61834202 
Loop time of 5.19298 on 4 procs for 60000 steps with 1200 atoms

Performance: 4991349.996 tau/day, 11554.051 timesteps/s
99.2% CPU use with 4 MPI tasks x 1 OpenMP threads

MPI task timing breakdown:
Section |  min time  |  avg time  |  max time  |%varavg| %total
---------------------------------------------------------------
Pair    | 2.6297     | 2.7027     | 2.7865     |   3.5 | 52.05
Bond    | 0.11565    | 0.12651    | 0.14503    |   3.1 |  2.44
Neigh   | 0.61736    | 0.62185    | 0.62546    |   0.4 | 11.97
Comm    | 1.052      | 1.1593     | 1.2468     |   6.7 | 22.32
Output  | 0.0017846  | 0.0018874  | 0.0021894  |   0.4 |  0.04
Modify  | 0.30348    | 0.31355    | 0.32616    |   1.5 |  6.04
Other   |            | 0.2672     |            |       |  5.15

Nlocal:    300 ave 304 max 293 min
Histogram: 1 0 0 0 0 0 0 1 1 1
Nghost:    223.5 ave 230 max 218 min
Histogram: 1 0 0 1 0 1 0 0 0 1
Neighs:    2458.75 ave 2503 max 2394 min
Histogram: 1 0 0 0 1 0 0 0 1 1

Total # of neighbors = 9835
Ave neighs/atom = 8.19583
Ave special neighs/atom = 0.5
Neighbor list builds = 4883
Dangerous builds = 0
Total wall time: 0:00:05
