LAMMPS (4 Jan 2019)
# 2d micelle simulation

dimension	2

neighbor	0.3 bin
neigh_modify	delay 5

atom_style	bond

# Soft potential push-off

read_data	data.micelle
  orthogonal box = (0 0 -0.1) to (35.8569 35.8569 0.1)
  4 by 2 by 1 MPI processor grid
  reading atoms ...
  1200 atoms
  scanning bonds ...
  1 = max bonds/atom
  reading bonds ...
  300 bonds
  2 = max # of 1-2 neighbors
  1 = max # of 1-3 neighbors
  1 = max # of 1-4 neighbors
  2 = max # of special neighbors
special_bonds	fene
  2 = max # of 1-2 neighbors
  2 = max # of special neighbors

pair_style	soft 1.12246
pair_coeff	* * 0.0 1.12246

bond_style 	harmonic
bond_coeff	1 50.0 0.75

velocity	all create 0.45 2349852

variable	prefactor equal ramp(1.0,20.0)

fix		1 all nve
fix		2 all temp/rescale 100 0.45 0.45 0.02 1.0
fix		3 all adapt 1 pair soft a * * v_prefactor
fix		4 all enforce2d

thermo		50
run		1000
Neighbor list info ...
  update every 1 steps, delay 5 steps, check yes
  max neighbors/atom: 2000, page size: 100000
  master list distance cutoff = 1.42246
  ghost atom cutoff = 1.42246
  binsize = 0.71123, bins = 51 51 1
  1 neighbor lists, perpetual/occasional/extra = 1 0 0
  (1) pair soft, perpetual
      attributes: half, newton on
      pair build: half/bin/newton
      stencil: half/bin/2d/newton
      bin: standard
Per MPI rank memory allocation (min/avg/max) = 3.75 | 3.843 | 4.122 Mbytes
Step Temp E_pair E_mol TotEng Press 
       0         0.45   0.40003481 2.2200223e-06   0.84966203   0.78952518 
      50   0.47411013   0.67721272  0.057404514    1.2083323    1.3375852 
     100         0.45   0.73046745  0.054836584     1.234929    2.3196516 
     150   0.67521742   0.72402001  0.043490075    1.4421648    2.8744416 
     200         0.45   0.78481891  0.076931503    1.3113754    3.0412388 
     250   0.66479018   0.69790602  0.081075564    1.4432178    3.6917024 
     300         0.45   0.76820218  0.066727591    1.2845548    3.7861054 
     350   0.67619136     0.625715  0.072722727    1.3740656    4.2861621 
     400         0.45   0.68527759  0.090724527    1.2256271    4.4725214 
     450   0.56702844   0.64402767  0.080555563    1.2911391    4.7402211 
     500         0.45   0.64883009  0.078376672    1.1768318    4.7919294 
     550     0.564664   0.58260368  0.080779475    1.2275766    4.9855705 
     600         0.45   0.58193041  0.088386617     1.119942     5.131481 
     650   0.52110993    0.5415273  0.097683746    1.1598867    5.2500294 
     700         0.45   0.50856787  0.088471208    1.0466641    5.2550165 
     750   0.51510855   0.47441291  0.089429375    1.0785216     5.375763 
     800         0.45   0.49926696  0.085958476    1.0348504    5.4665914 
     850   0.50688494   0.46614429  0.088962292    1.0615691     5.556932 
     900         0.45   0.47785593   0.10150857    1.0289895    5.7765975 
     950   0.49590559   0.46050477  0.096404887     1.052402    5.8649245 
    1000         0.45   0.47691182   0.08808163    1.0146185    6.0177568 
Loop time of 0.0454296 on 8 procs for 1000 steps with 1200 atoms

Performance: 9509226.586 tau/day, 22012.099 timesteps/s
98.6% CPU use with 8 MPI tasks x no OpenMP threads

MPI task timing breakdown:
Section |  min time  |  avg time  |  max time  |%varavg| %total
---------------------------------------------------------------
Pair    | 0.014355   | 0.015124   | 0.015853   |   0.5 | 33.29
Bond    | 0.00075794 | 0.00089708 | 0.0010187  |   0.0 |  1.97
Neigh   | 0.0043527  | 0.0043783  | 0.0044058  |   0.0 |  9.64
Comm    | 0.015755   | 0.016407   | 0.017139   |   0.4 | 36.12
Output  | 0.00049815 | 0.00052239 | 0.00057058 |   0.0 |  1.15
Modify  | 0.0049224  | 0.005003   | 0.0050593  |   0.1 | 11.01
Other   |            | 0.003098   |            |       |  6.82

Nlocal:    150 ave 154 max 144 min
Histogram: 1 0 0 0 1 0 2 2 1 1
Nghost:    79 ave 84 max 75 min
Histogram: 1 1 1 0 3 0 0 0 1 1
Neighs:    392 ave 417 max 363 min
Histogram: 1 0 1 0 1 1 2 1 0 1

Total # of neighbors = 3136
Ave neighs/atom = 2.61333
Ave special neighs/atom = 0.5
Neighbor list builds = 92
Dangerous builds = 0

unfix		3

# Main run

pair_style	lj/cut 2.5

# solvent/head - full-size and long-range

pair_coeff	1 1 1.0 1.0 2.5
pair_coeff	2 2 1.0 1.0 2.5
pair_coeff	1 2 1.0 1.0 2.5

# tail/tail - size-averaged and long-range

pair_coeff	3 3 1.0 0.75 2.5
pair_coeff	4 4 1.0 0.50 2.5
pair_coeff	3 4 1.0 0.67 2.5

# solvent/tail - full-size and repulsive

pair_coeff	1 3 1.0 1.0 1.12246
pair_coeff	1 4 1.0 1.0 1.12246

# head/tail - size-averaged and repulsive

pair_coeff	2 3 1.0 0.88 1.12246
pair_coeff	2 4 1.0 0.75 1.12246

thermo		1000

#dump		1 all atom 2000 dump.micelle

#dump		2 all image 2000 image.*.jpg type type zoom 1.6
#dump_modify	2 pad 5 adiam 1 0.5 adiam 2 1.5 adiam 3 1.0 adiam 4 0.75

#dump		3 all movie 2000 movie.mpg type type zoom 1.6
#dump_modify	3 pad 5 adiam 1 0.5 adiam 2 1.5 adiam 3 1.0 adiam 4 0.75

reset_timestep	0
run		60000
Neighbor list info ...
  update every 1 steps, delay 5 steps, check yes
  max neighbors/atom: 2000, page size: 100000
  master list distance cutoff = 2.8
  ghost atom cutoff = 2.8
  binsize = 1.4, bins = 26 26 1
  1 neighbor lists, perpetual/occasional/extra = 1 0 0
  (1) pair lj/cut, perpetual
      attributes: half, newton on
      pair build: half/bin/newton
      stencil: half/bin/2d/newton
      bin: standard
Per MPI rank memory allocation (min/avg/max) = 3.997 | 4.028 | 4.121 Mbytes
Step Temp E_pair E_mol TotEng Press 
       0         0.45   -1.7056163   0.08808163   -1.1679097    3.9431686 
    1000         0.45   -1.9727655  0.058608663   -1.4645319    1.9982451 
    2000   0.46198856   -1.9818911  0.066749836   -1.4535377    1.6662087 
    3000   0.45703411   -2.0118981  0.060655292   -1.4945896    1.5007231 
    4000    0.4688175    -2.030233  0.061117812   -1.5006884    1.3178586 
    5000   0.44321553   -2.0178653  0.059864951   -1.5151542    1.4720291 
    6000   0.44463633   -2.0365967  0.067069386   -1.5252615    1.3063842 
    7000   0.44667936    -2.071455  0.060322835   -1.5648251    1.0776979 
    8000   0.45580226     -2.05394  0.060003926   -1.5385136    1.1303201 
    9000   0.45191724   -2.0669797    0.0555962   -1.5598429    1.0265225 
   10000   0.44028267   -2.0399091  0.060562106   -1.5394312    1.3527646 
   11000   0.45603845   -2.0481242  0.064091529   -1.5283743    1.1000429 
   12000   0.45020831   -2.0862675  0.065040489   -1.5713938     1.011746 
   13000   0.45810149   -2.0668867  0.069861014   -1.5393059    1.0223317 
   14000   0.45352383   -2.0598048  0.057960539   -1.5486984    1.0228405 
   15000   0.46282695   -2.0950444  0.058157405   -1.5744457   0.92296263 
   16000   0.46193075   -2.1007935  0.062689005   -1.5765587   0.90243956 
   17000    0.4422748   -2.0696067  0.058853333   -1.5688471    1.0103091 
   18000   0.46354741   -2.0988354  0.055273723   -1.5804006   0.88782183 
   19000   0.45913131    -2.098701  0.062630106   -1.5773222   0.79188977 
   20000   0.44075661    -2.105764  0.062977817   -1.6023968   0.77333379 
   21000   0.44224684   -2.0885022  0.055131318   -1.5914926   0.95947218 
   22000   0.44030146   -2.0892666  0.056268329   -1.5930637   0.89843759 
   23000    0.4455388   -2.0989906  0.063640027   -1.5901831   0.64203231 
   24000   0.46166605   -2.0871373  0.062900948    -1.562955   0.95333571 
   25000   0.43829498    -2.093277  0.062388872   -1.5929584     0.803441 
   26000   0.44700715    -2.090611  0.058936274   -1.5850401   0.94858796 
   27000   0.46586274   -2.1185012  0.058613047   -1.5944136   0.54520148 
   28000   0.44140241   -2.0925389   0.05942766   -1.5920767   0.87114601 
   29000   0.46813602   -2.1004378  0.049137158   -1.5835547   0.71580974 
   30000   0.44786035   -2.0998623  0.061167106   -1.5912081   0.73791492 
   31000   0.46013901    -2.116296   0.06307964   -1.5934608   0.77592322 
   32000   0.45192744   -2.0957365  0.058253812   -1.5859318   0.95505705 
   33000     0.461338   -2.1017107  0.055313144    -1.585444   0.66591994 
   34000   0.46498004   -2.1251686  0.059425196   -1.6011509   0.70319243 
   35000    0.4491129   -2.1091284  0.074740964   -1.5856488   0.99948527 
   36000   0.45242604   -2.0934619   0.05520292     -1.58621   0.82865479 
   37000   0.43732723   -2.0989464    0.0636034   -1.5983802   0.92518547 
   38000         0.45   -2.0897708  0.072931603   -1.5672142   0.90249834 
   39000   0.43791665   -2.0911787  0.063141731   -1.5904853   0.88586662 
   40000   0.43874764    -2.083127  0.064739246   -1.5800058   0.99037685 
   41000   0.44500101   -2.1007505    0.0539187   -1.6022017   0.89617366 
   42000   0.45258691   -2.1014895  0.054603501   -1.5946762   0.81719883 
   43000   0.44585688   -2.1023213  0.061060978    -1.595775   0.82594079 
   44000   0.45769878   -2.1129467  0.066927028   -1.5887023   0.77094877 
   45000   0.44558123   -2.1079479  0.072666997    -1.590071   0.70866764 
   46000   0.44673256   -2.1034943  0.064907075    -1.592227   0.88322569 
   47000   0.43604363   -2.0745554   0.06071283   -1.5781624    0.8521494 
   48000   0.45516726    -2.106045  0.050868677   -1.6003884   0.68056942 
   49000   0.44989621   -2.1130751  0.067087057   -1.5964668   0.68575525 
   50000   0.46571598    -2.106021  0.060449566   -1.5802436   0.74145319 
   51000   0.45465694   -2.1119345  0.060277504   -1.5973789    0.5474487 
   52000    0.4531092   -2.1149657  0.061619741   -1.6006144     0.647208 
   53000   0.45110723   -2.1174845  0.062537151   -1.6042161    0.6477329 
   54000    0.4576458    -2.109699    0.0559768   -1.5964578   0.71107658 
   55000   0.44416546   -2.0947343   0.05205533   -1.5988836   0.81389337 
   56000         0.45   -2.1239724  0.055340302   -1.6190071   0.58462202 
   57000   0.46080624   -2.1250391  0.062173982   -1.6024429   0.51532048 
   58000   0.44557087   -2.1109169  0.062499471   -1.6032179    0.5871854 
   59000   0.44650125   -2.1156376  0.062074642   -1.6074338    0.6449482 
   60000    0.4504549   -2.1164586  0.065454382   -1.6009247   0.62710365 
Loop time of 3.04178 on 8 procs for 60000 steps with 1200 atoms

Performance: 8521335.203 tau/day, 19725.313 timesteps/s
100.0% CPU use with 8 MPI tasks x no OpenMP threads

MPI task timing breakdown:
Section |  min time  |  avg time  |  max time  |%varavg| %total
---------------------------------------------------------------
Pair    | 0.92722    | 0.98199    | 1.0751     |   5.5 | 32.28
Bond    | 0.034864   | 0.049428   | 0.071279   |   5.0 |  1.62
Neigh   | 0.40363    | 0.40685    | 0.40968    |   0.3 | 13.38
Comm    | 1.1399     | 1.2152     | 1.2738     |   4.6 | 39.95
Output  | 0.0014144  | 0.0014715  | 0.001672   |   0.2 |  0.05
Modify  | 0.16956    | 0.18235    | 0.19781    |   2.3 |  5.99
Other   |            | 0.2045     |            |       |  6.72

Nlocal:    150 ave 165 max 141 min
Histogram: 2 1 1 0 1 2 0 0 0 1
Nghost:    169 ave 177 max 156 min
Histogram: 1 1 0 0 1 0 1 0 1 3
Neighs:    1207.75 ave 1291 max 1141 min
Histogram: 1 1 1 1 1 0 1 0 1 1

Total # of neighbors = 9662
Ave neighs/atom = 8.05167
Ave special neighs/atom = 0.5
Neighbor list builds = 4876
Dangerous builds = 0
Total wall time: 0:00:03
